16
Properties=species:S:1:pos:R:3 isomer=D00 dft_rel_eV=0.0 dft_mult=53 record_id=55665f3dee9f21ba5ae7 n_records=62 pbc="F F F"
Fe       0.63261850      -2.60055856       0.18572663
Fe      -1.88949150       1.80935244      -0.35525537
Fe       2.42199250       0.99146844       0.34545363
Fe      -2.48081850      -0.25255456       0.86686663
Fe       0.44626750       2.35247144      -0.01049637
Fe      -1.54184850      -2.19234956      -0.16883437
Fe      -2.09651350      -0.33499256      -1.57029037
Fe       2.21521850      -1.14891156      -0.86394237
Fe       0.09885250      -1.24503056      -2.04354837
Fe      -0.53316550       1.33387044      -2.26686337
Fe       1.64066850       0.92247544      -1.91443037
Fe      -0.00069050      -0.00001756       0.00137563
Fe       0.98889550       1.06693044       2.25675463
Fe      -0.54458050      -1.10705856       2.05374463
Fe      -1.18694050       1.47111444       1.90606263
Fe       1.82953550      -1.06620956       1.57767663
16
Properties=species:S:1:pos:R:3 isomer=D01 dft_rel_eV=0.053399624419398606 dft_mult=53 record_id=8d19214fd16186942fee n_records=2 pbc="F F F"
Fe       0.64714756      -2.59088044       0.28354762
Fe      -1.89503844       1.84714456      -0.29068538
Fe       2.42334256       0.97641756       0.28406462
Fe      -2.46940144      -0.34129644       0.82060962
Fe       0.42090456       2.38683056      -0.03063838
Fe      -1.47187444      -2.19081144      -0.29454838
Fe      -2.11887444      -0.20646544      -1.58321838
Fe       2.21073456      -1.22769344      -0.78925838
Fe       0.05862856      -1.24133244      -2.04133038
Fe      -0.54967044       1.39473956      -2.27770238
Fe       1.59595856       0.80534056      -1.93785138
Fe      -0.00401044       0.02002356       0.01077762
Fe       0.99235756       1.09372756       2.24473562
Fe      -0.51816444      -1.12800444       2.04750462
Fe      -1.18817044       1.41414856       1.90874162
Fe       1.86613056      -1.01188844       1.64525162
16
Properties=species:S:1:pos:R:3 isomer=D02 dft_rel_eV=0.12084576627239585 dft_mult=51 record_id=28937a275060ba88da1c n_records=52 pbc="F F F"
Fe      -0.00694038      -2.16489538       0.97718012
Fe       2.07710463      -0.61348437       1.61037213
Fe       2.14829463      -1.56058437      -0.41596587
Fe       0.00616162      -0.00292137      -0.00683888
Fe      -0.08149438       2.68166663       0.13248512
Fe      -1.39564138       1.48161762       1.69681813
Fe      -2.02748737      -1.55208838      -0.71390588
Fe      -1.10500738      -0.15206337      -2.39588587
Fe      -2.13713837      -0.71461438       1.38595512
Fe       0.07567862       1.81058762      -1.93252288
Fe      -0.05703738      -0.40330338       2.61504913
Fe      -2.08666537       1.09216362      -0.55815388
Fe       1.14158362       1.56222262       1.79223413
Fe       2.04991863       1.09357062      -0.43168587
Fe       1.28851662      -0.33697637      -2.29631788
Fe       0.11015362      -2.22089737      -1.45881687
16
Properties=species:S:1:pos:R:3 isomer=D03 dft_rel_eV=0.12433426606003195 dft_mult=53 record_id=2fada75c0f279e877aa2 n_records=2 pbc="F F F"
Fe      -0.00561750      -2.22151612       0.86770944
Fe       2.04860850      -0.58673412       1.62114844
Fe       2.14005850      -1.51237213      -0.43642656
Fe       0.00401150       0.02955187       0.01638144
Fe      -0.03595950       2.70370487      -0.04573056
Fe      -1.27968950       1.50801088       1.79304344
Fe      -2.06551850      -1.56257913      -0.61526256
Fe      -1.17409250      -0.24805213      -2.38458956
Fe      -2.16109650      -0.65498213       1.44786744
Fe       0.08247450       1.70226188      -2.07581656
Fe      -0.10130650      -0.55728513       2.64168544
Fe      -2.05654250       1.09507187      -0.56530856
Fe       1.05513050       1.54689687       1.89460544
Fe       2.08023650       1.16203287      -0.39071556
Fe       1.39882150      -0.23015613      -2.26023656
Fe       0.07048150      -2.17385413      -1.50835456
16
Properties=species:S:1:pos:R:3 isomer=D04 dft_rel_eV=0.2635395546676591 dft_mult=51 record_id=5175ea25d828465b602c n_records=60 pbc="F F F"
Fe       0.04195225       0.01100994      -0.00537769
Fe       0.03281025      -2.30800606       0.82637831
Fe       1.75115525      -0.09895706       1.65006831
Fe      -1.18730875       0.33710994      -1.98995869
Fe      -2.49311875       0.76234394       0.05280331
Fe       2.52856425       0.79916294      -0.64277669
Fe      -1.92646375      -1.61751306      -0.68186569
Fe       2.04137325      -1.52305806      -0.30358969
Fe       0.71611325       1.97670094      -1.68571769
Fe      -0.81445975       1.26261494       1.93658131
Fe       0.07475525      -2.08218006      -1.68910969
Fe      -0.13394275      -0.89469406       2.76911631
Fe       1.24467725      -0.24440706      -2.37762269
Fe      -2.04697475      -0.97428106       1.57905931
Fe      -1.00750975       2.47229594      -0.26987569
Fe       1.17837725       2.12185794       0.83188731
16
Properties=species:S:1:pos:R:3 isomer=D05 dft_rel_eV=0.3462050249800086 dft_mult=53 record_id=03e8adbc58c21116269a n_records=11 pbc="F F F"
Fe      -1.46083494      -1.72421537      -1.00570337
Fe      -2.49152994       0.41215262      -0.41090737
Fe       1.22782106       2.04119262       0.35027662
Fe      -1.67592094      -0.53529238       1.68587062
Fe      -0.00293094       0.00361162      -0.00673438
Fe      -0.73826494      -2.64060838       1.00905063
Fe       0.56630506      -1.14567938      -2.22718637
Fe       1.31787506      -2.05847837      -0.08660537
Fe       2.46604106      -0.05546838      -1.04052938
Fe      -1.20238394       0.44587262      -2.39721137
Fe       0.99431006       1.36665963      -2.09203937
Fe      -0.90784594       2.33956162      -0.96639737
Fe       2.31572206       0.00517562       1.24202763
Fe       0.31141906       0.97515362       2.42134662
Fe      -1.40117794       1.91782962       1.23279362
Fe       0.68139606      -1.34746737       2.29194862
16
Properties=species:S:1:pos:R:3 isomer=D06 dft_rel_eV=0.3619495329912752 dft_mult=51 record_id=c6acd17b02c92f8913e7 n_records=1 pbc="F F F"
Fe      -0.00113644      -2.13390250       1.04695312
Fe       2.07273456      -0.58390250       1.65835313
Fe       2.16780256      -1.55257550      -0.35164688
Fe       0.00467756      -0.00066750      -0.00172888
Fe      -0.05900944       2.66473050       0.21835312
Fe      -1.45807944       1.42209750       1.72835312
Fe      -1.96807944      -1.55784050      -0.77164687
Fe      -1.05117944      -0.06390250      -2.42564687
Fe      -2.16807944      -0.73630250       1.32835313
Fe       0.04861956       1.87629750      -1.86164687
Fe      -0.08807944      -0.38390250       2.60808513
Fe      -2.10110444       1.09908050      -0.51954687
Fe       1.22192056       1.59609750       1.67835313
Fe       2.04586856       1.03609750      -0.53164687
Fe       1.20192056      -0.43750250      -2.36164687
Fe       0.13120356      -2.24390250      -1.44164687
16
Properties=species:S:1:pos:R:3 isomer=D07 dft_rel_eV=0.4354447660734877 dft_mult=53 record_id=987813c541fcd4a494bb n_records=1 pbc="F F F"
Fe      -0.00940263      -0.00299913      -0.01825956
Fe       0.04450337      -2.32718313       0.83131744
Fe       1.78668237      -0.07067213       1.65486644
Fe      -1.14200763       0.36779187      -2.09583556
Fe      -2.53932563       0.71397587      -0.13917256
Fe       2.52563237       0.78189887      -0.56996056
Fe      -1.97748663      -1.62073713      -0.57802556
Fe       2.04510137      -1.54489513      -0.37125156
Fe       0.66298437       1.97932887      -1.67079256
Fe      -0.82809463       1.24607887       1.94144044
Fe       0.01928037      -2.05675813      -1.68297756
Fe      -0.02210363      -0.96146913       2.77479844
Fe       1.34171037      -0.25644513      -2.36901356
Fe      -2.03683563      -0.83619213       1.64105444
Fe      -1.03651163       2.46468987      -0.18326856
Fe       1.16587337       2.12358687       0.83508044
16
Properties=species:S:1:pos:R:3 isomer=D08 dft_rel_eV=0.45359476073645055 dft_mult=53 record_id=b60b1e654f6d60604cd3 n_records=3 pbc="F F F"
Fe      -1.44146381      -1.63502525      -0.92734650
Fe      -2.51196081       0.43460575      -0.31917350
Fe       1.22477719       2.05773375       0.35100150
Fe      -1.68293481      -0.56284125       1.69000850
Fe       0.02707119       0.10109875      -0.04883850
Fe      -0.72274981      -2.69100925       0.98207350
Fe       0.60269419      -1.14229325      -2.25912150
Fe       1.31117319      -2.05632925      -0.08945450
Fe       2.47139119      -0.11282725      -1.03071650
Fe      -1.20747681       0.41148175      -2.37992950
Fe       1.00985219       1.33278975      -2.12629650
Fe      -0.89221081       2.33172275      -0.98247550
Fe       2.30602019       0.02651375       1.26297250
Fe       0.23985019       0.93011375       2.40926550
Fe      -1.42342981       1.92830575       1.21406150
Fe       0.68939719      -1.35404025       2.25396950
16
Properties=species:S:1:pos:R:3 isomer=D09 dft_rel_eV=0.45921391202136874 dft_mult=53 record_id=9b6a112787a5730d02f1 n_records=5 pbc="F F F"
Fe      -0.00883669       0.00936288      -0.02665263
Fe       0.04279131      -2.32151412       0.83387337
Fe       1.77314331      -0.07259012       1.65227237
Fe      -1.13690069       0.34113588      -2.11142063
Fe      -2.52959069       0.71311888      -0.15610063
Fe       2.51765431       0.77874188      -0.56106263
Fe      -1.96801569      -1.63183212      -0.56624363
Fe       2.03546631      -1.54756812      -0.37059663
Fe       0.64173431       1.97579788      -1.67285363
Fe      -0.81164969       1.24128487       1.95838937
Fe       0.02616231      -2.04638312      -1.69133663
Fe      -0.03251569      -0.97314212       2.77975737
Fe       1.34922431      -0.24312012      -2.36828163
Fe      -2.03779169      -0.81357212       1.64233237
Fe      -1.03453969       2.47032988      -0.15321663
Fe       1.17366431       2.11994988       0.81114037
16
Properties=species:S:1:pos:R:3 isomer=D10 dft_rel_eV=0.48341571900527924 dft_mult=51 record_id=bccfeea70309e7d4d5fb n_records=31 pbc="F F F"
Fe       0.41840887       1.88151819       1.55384813
Fe       0.40979987       2.78498319      -0.60274787
Fe      -1.36609713      -1.75908981       1.61966313
Fe       0.53092587      -1.29130981      -2.52390787
Fe       0.66058087       1.04904519      -2.19129987
Fe       0.05295787      -0.32053881       2.73673313
Fe      -1.65277113       1.63552019      -0.69276987
Fe      -0.01501913      -0.01754981       0.04639213
Fe      -0.65073513      -2.26153281      -0.75376887
Fe       0.97445487      -2.04364081       1.07785013
Fe      -2.52223013      -0.78159781      -0.16354087
Fe       2.25115487       1.41176819      -0.32181087
Fe      -1.48477113      -0.20052481      -2.21949887
Fe       2.08088587       0.07534119       1.63338513
Fe       2.09144387      -0.93231181      -0.78868187
Fe      -1.77898913       0.76992019       1.59015513
16
Properties=species:S:1:pos:R:3 isomer=D11 dft_rel_eV=0.5558633136097342 dft_mult=53 record_id=26270c25ffe1a6c60643 n_records=15 pbc="F F F"
Fe       0.39425094       1.86788525       1.55120719
Fe       0.38119094       2.80975025      -0.59932181
Fe      -1.35835006      -1.74379175       1.56401919
Fe       0.55631994      -1.29848375      -2.53088481
Fe       0.64319494       1.04662425      -2.17149281
Fe       0.06215894      -0.30585475       2.68640119
Fe      -1.66991506       1.67353725      -0.67173481
Fe      -0.01124506      -0.01693975       0.04439019
Fe      -0.60660306      -2.26032175      -0.73548981
Fe       1.05259394      -2.05523675       1.14700319
Fe      -2.57749506      -0.70262175      -0.17689481
Fe       2.23549294       1.39965125      -0.30433081
Fe      -1.49055606      -0.22350975      -2.19310581
Fe       2.15444394       0.02643325       1.59986619
Fe       2.09008894      -0.98850575      -0.79143281
Fe      -1.85557106       0.77138425       1.58180119
16
Properties=species:S:1:pos:R:3 isomer=D12 dft_rel_eV=0.5874040314229205 dft_mult=53 record_id=c1964f8d1b8f0ae8c422 n_records=1 pbc="F F F"
Fe      -1.41043181      -1.64514925      -0.87627037
Fe      -2.52195281       0.45557275      -0.29269437
Fe       1.24010019       2.10079775       0.37093963
Fe      -1.64272781      -0.61406525       1.69617662
Fe       0.02658019       0.14056975      -0.09200838
Fe      -0.76268881      -2.83006625       1.04637362
Fe       0.64001619      -1.15241125      -2.26110637
Fe       1.21438119      -2.07791425      -0.10427338
Fe       2.51106819      -0.10630825      -1.03825637
Fe      -1.21030681       0.42667475      -2.36019537
Fe       1.06493319       1.34620275      -2.14168537
Fe      -0.89121381       2.33097275      -1.02416038
Fe       2.27336519       0.10235275       1.23611563
Fe       0.24587519       0.95645475       2.44779663
Fe      -1.43245681       1.94488275       1.22015563
Fe       0.65545919      -1.37856625       2.17309263
16
Properties=species:S:1:pos:R:3 isomer=D13 dft_rel_eV=0.618163782521151 dft_mult=53 record_id=a7d1665e40b591aef252 n_records=3 pbc="F F F"
Fe       0.46742100       1.89299725       1.54741712
Fe       0.36424800       2.77001825      -0.58376188
Fe      -1.35478600      -1.74713275       1.55974013
Fe       0.57023000      -1.30579575      -2.58686487
Fe       0.66693300       1.05686425      -2.18679687
Fe       0.04500900      -0.28912475       2.68541413
Fe      -1.71787300       1.68232525      -0.67559288
Fe      -0.05396000       0.05634725       0.10223013
Fe      -0.53369200      -2.23210675      -0.72685988
Fe       1.05974600      -2.04512475       1.16025713
Fe      -2.57402000      -0.74394575      -0.18797588
Fe       2.23527400       1.35698425      -0.31576887
Fe      -1.45325600      -0.21388275      -2.18645288
Fe       2.15644800       0.00186025       1.59935213
Fe       2.01548400      -1.01300375      -0.80717187
Fe      -1.89320600       0.77272025       1.60283512
16
Properties=species:S:1:pos:R:3 isomer=D14 dft_rel_eV=0.6850629755062982 dft_mult=53 record_id=969fc4af98b34d41b0f0 n_records=1 pbc="F F F"
Fe       0.02839131       0.05647400      -0.08057269
Fe      -0.01611269      -2.27305800       0.81566831
Fe       1.72796931      -0.07033500       1.60193631
Fe      -1.16040169       0.13930000      -2.13837269
Fe      -2.55260269       0.67339900      -0.25298269
Fe       2.60619631       0.81247400      -0.58527569
Fe      -1.99694669      -1.68290900      -0.54441969
Fe       2.04844631      -1.59811500      -0.42709169
Fe       0.55554431       1.94955900      -1.64502469
Fe      -0.65857169       1.25417800       2.04916931
Fe       0.03300831      -2.06545600      -1.68436469
Fe      -0.09225569      -0.98125100       2.74060031
Fe       1.40034631      -0.19637800      -2.31415169
Fe      -2.10260569      -0.73212800       1.60287231
Fe      -1.03393569       2.48320600       0.00322031
Fe       1.21353031       2.23104000       0.85878931
16
Properties=species:S:1:pos:R:3 isomer=D15 dft_rel_eV=0.722579313791357 dft_mult=49 record_id=1b1a3a006db289cda18d n_records=49 pbc="F F F"
Fe      -1.37248081      -1.69601019      -0.96136750
Fe      -2.51506481       0.40847881      -0.45508650
Fe       1.23658619       1.95438481       0.33745750
Fe      -1.68574781      -0.52371219       1.68281050
Fe      -0.02274881      -0.00266919      -0.03475750
Fe      -0.70544581      -2.65371319       1.05137850
Fe       0.65004219      -1.05403819      -2.23274550
Fe       1.28544419      -2.02085419      -0.04750750
Fe       2.45525419       0.06219581      -1.08103150
Fe      -1.23457681       0.37558881      -2.40684050
Fe       0.93130919       1.46672181      -2.09417550
Fe      -0.90642181       2.31756581      -0.97437350
Fe       2.28501119      -0.20832619       1.20006450
Fe       0.45264819       1.01725381       2.38127950
Fe      -1.36730181       1.85100881       1.22658050
Fe       0.51349319      -1.29387519       2.40831450
16
Properties=species:S:1:pos:R:3 isomer=D16 dft_rel_eV=0.739259893540293 dft_mult=51 record_id=51d23dc44aa8e59cb506 n_records=18 pbc="F F F"
Fe      -0.00060563      -0.14411344      -0.00026463
Fe      -1.25240362      -2.45473244       0.01912437
Fe      -0.04833663      -1.89254044      -1.95171162
Fe       2.05281138      -0.70628744      -1.41916362
Fe       2.05077337      -0.37633444       1.07833337
Fe       1.24992338      -2.45508344      -0.00016863
Fe       0.04626237      -1.88104744       1.96475938
Fe      -2.05665463      -0.69489144       1.41846637
Fe      -2.05123262      -0.38316144      -1.07831262
Fe       0.06508037       0.35878256      -2.58792963
Fe      -1.21788162       1.85688256      -1.36218562
Fe      -1.45127363       1.63504256       1.05297237
Fe       0.00182437       3.27117356      -0.00993463
Fe      -0.06219763       0.37264456       2.58238638
Fe       1.22026638       1.86746956       1.35327438
Fe       1.45364438       1.62619656      -1.05964562
16
Properties=species:S:1:pos:R:3 isomer=D17 dft_rel_eV=0.7618589497869834 dft_mult=51 record_id=7cef93188bd6b9f95656 n_records=8 pbc="F F F"
Fe      -0.00315863      -0.14989144       0.00254431
Fe      -1.25749062      -2.47187944       0.02644931
Fe      -0.01473263      -1.90317844      -1.94620369
Fe       2.05665938      -0.67547744      -1.38647869
Fe       2.03131238      -0.41618844       1.10934531
Fe       1.25211137      -2.46851444      -0.01245369
Fe       0.01369037      -1.89398544       1.95161131
Fe      -2.06015863      -0.66634144       1.39001631
Fe      -2.03298163      -0.42693744      -1.10910869
Fe       0.05202537       0.34307156      -2.58115869
Fe      -1.20494762       1.84728656      -1.29569769
Fe      -1.41788362       1.67173056       1.10331231
Fe       0.00280837       3.33111656      -0.01502169
Fe      -0.04830663       0.35861356       2.58315031
Fe       1.20949638       1.86361156       1.28793431
Fe       1.42155637       1.65696356      -1.10824069
16
Properties=species:S:1:pos:R:3 isomer=D18 dft_rel_eV=0.7643596762791276 dft_mult=49 record_id=b15e15d3980ecead4a7d n_records=4 pbc="F F F"
Fe       0.04311988       0.01459619      -0.05523969
Fe       0.03538287      -2.26233181       0.83076931
Fe       1.67874687      -0.06451881       1.63888831
Fe      -1.20556812       0.38946319      -1.96748869
Fe      -2.45239412       0.76112619       0.26343331
Fe       2.54901887       0.80430519      -0.57046669
Fe      -2.02223613      -1.49410881      -0.75643169
Fe       2.07702588      -1.47072781      -0.30895569
Fe       0.81908987       1.91567919      -1.77265669
Fe      -0.80397912       1.19335319       1.93760731
Fe       0.02107188      -2.06916581      -1.64191869
Fe      -0.15019512      -0.87490781       2.85881131
Fe       1.22710388      -0.26381981      -2.36530269
Fe      -1.98950412      -1.17168581       1.53932031
Fe      -0.96669112       2.44225219      -0.40510569
Fe       1.14000788       2.15049119       0.77473631
16
Properties=species:S:1:pos:R:3 isomer=D19 dft_rel_eV=0.7696060314774513 dft_mult=53 record_id=5a8a7bd92c0e3b00a94f n_records=1 pbc="F F F"
Fe       0.47680288       1.90856412       1.61450913
Fe       0.37221388       2.74552013      -0.64007288
Fe      -1.39135212      -1.76633888       1.51394513
Fe       0.55735388      -1.38787488      -2.66624488
Fe       0.69182388       0.97554013      -2.20962688
Fe       0.00954288      -0.36707288       2.72314613
Fe      -1.71735212       1.65524912      -0.61654288
Fe      -0.02753712       0.08991712       0.15022313
Fe      -0.50724112      -2.16760088      -0.73267088
Fe       1.09048988      -2.02350588       1.20886312
Fe      -2.61622612      -0.68137088      -0.20996988
Fe       2.25354488       1.39073012      -0.36843088
Fe      -1.41382312      -0.18249488      -2.14863088
Fe       2.12192788       0.07794212       1.60358413
Fe       2.00595088      -1.00095988      -0.85521088
Fe      -1.90611912       0.73375612       1.63313013
16
Properties=species:S:1:pos:R:3 isomer=D20 dft_rel_eV=0.7726700336206704 dft_mult=53 record_id=a440ddcefd475acbd568 n_records=3 pbc="F F F"
Fe       0.04031744       0.06648687      -0.08371862
Fe      -0.02820056      -2.27846913       0.79920338
Fe       1.72158144      -0.08476013       1.57519537
Fe      -1.18137056       0.10507487      -2.13838262
Fe      -2.55164356       0.66519687      -0.26345762
Fe       2.60417444       0.83012887      -0.53652262
Fe      -2.01181156      -1.69153913      -0.55286762
Fe       2.05178344      -1.61295413      -0.44413262
Fe       0.53768244       1.95636387      -1.63297362
Fe      -0.60619956       1.26602087       2.02912438
Fe       0.02870044      -2.08737113      -1.67282062
Fe      -0.09848156      -0.99348113       2.73739538
Fe       1.42162644      -0.19646813      -2.29091262
Fe      -2.11207856      -0.72226213       1.59909437
Fe      -1.04406356       2.49289087       0.03046038
Fe       1.22798344       2.28514187       0.84531538
16
Properties=species:S:1:pos:R:3 isomer=D21 dft_rel_eV=0.7729503108421341 dft_mult=53 record_id=1be17b39f56e0e34cbd1 n_records=2 pbc="F F F"
Fe      -1.38835594      -1.67742612      -0.86362050
Fe      -2.51907994       0.42673488      -0.28595050
Fe       1.25849506       2.08300088       0.37769050
Fe      -1.60037194      -0.66310712       1.68485450
Fe       0.02618806       0.17197188      -0.11581350
Fe      -0.79274994      -2.91753812       1.04910150
Fe       0.65200306      -1.14428212      -2.24198550
Fe       1.13132406      -2.05864812      -0.10713150
Fe       2.48979706      -0.07132712      -1.04942450
Fe      -1.21795094       0.42683888      -2.36451550
Fe       1.07822706       1.35062588      -2.14286450
Fe      -0.86376494       2.35010088      -1.05033750
Fe       2.24439206       0.15036388       1.22322950
Fe       0.25063206       0.99076788       2.47643650
Fe      -1.38279194       1.96696388       1.22227150
Fe       0.63400706      -1.38504012       2.18805950
16
Properties=species:S:1:pos:R:3 isomer=D22 dft_rel_eV=0.8191389178391546 dft_mult=53 record_id=5a03421fec0682c92b30 n_records=14 pbc="F F F"
Fe      -0.00010956      -0.08003444       0.00018438
Fe      -1.27714056      -2.38824544       0.03422638
Fe      -0.10472756      -1.88367644      -1.94145663
Fe       2.06169344      -0.71030644      -1.48001163
Fe       2.10427344      -0.32666344       1.06474337
Fe       1.27619044      -2.38882544      -0.03090262
Fe       0.10404644      -1.88100944       1.94404738
Fe      -2.06210756      -0.70737444       1.48117237
Fe      -2.10405056      -0.32701444      -1.06441263
Fe       0.06619844       0.33449156      -2.59480762
Fe      -1.26175856       1.87822256      -1.46054363
Fe      -1.52854456       1.57790456       1.02902037
Fe       0.00052644       3.10925856      -0.00193362
Fe      -0.06569156       0.33785756       2.59427538
Fe       1.26201844       1.87944156       1.45768038
Fe       1.52918344       1.57597356      -1.03128163
16
Properties=species:S:1:pos:R:3 isomer=D23 dft_rel_eV=0.8588539361953735 dft_mult=53 record_id=7e0c03ffb8ac515803ed n_records=6 pbc="F F F"
Fe      -0.00026150      -0.01144319      -0.00012469
Fe      -1.25469250      -2.41271319       0.01989731
Fe      -0.04143150      -1.86265219      -1.95119169
Fe       2.07376750      -0.69749419      -1.40325369
Fe       2.09275750      -0.39951519       1.10603431
Fe       1.25380550      -2.41303019      -0.01551069
Fe       0.04027250      -1.85894719       1.95317231
Fe      -2.07399350      -0.69763819       1.40339831
Fe      -2.09175150      -0.39631919      -1.10685269
Fe       0.02246250       0.36641981      -2.59388569
Fe      -1.33653850       1.84820681      -1.41130669
Fe      -1.50658250       1.61269981       1.10421931
Fe       0.00056750       3.09185781      -0.00452769
Fe      -0.01995550       0.37101981       2.59219031
Fe       1.33717350       1.85105981       1.41138231
Fe       1.50440050       1.60848881      -1.10364069
16
Properties=species:S:1:pos:R:3 isomer=D24 dft_rel_eV=0.8777223112992942 dft_mult=49 record_id=a09438f828c931e233b3 n_records=16 pbc="F F F"
Fe       0.00010325      -0.04770362       0.00021931
Fe      -1.22999275      -2.46571963       0.15962931
Fe      -0.29097575      -1.81733363      -1.88827669
Fe       2.04334425      -0.74599862      -1.42117169
Fe       2.05589425      -0.31862262       1.06491431
Fe       1.22734625      -2.46788462      -0.14461669
Fe       0.28903925      -1.80594162       1.89935731
Fe      -2.04395975      -0.73538962       1.42603931
Fe      -2.05606675      -0.32295762      -1.06267369
Fe       0.20656425       0.36876838      -2.58193869
Fe      -1.20801675       1.85056637      -1.51230369
Fe      -1.53558875       1.60323938       1.00490731
Fe       0.00137425       3.06543237      -0.00940169
Fe      -0.20611275       0.38502338       2.57966731
Fe       1.21010125       1.85860538       1.50064931
Fe       1.53694625       1.59591638      -1.01500069
16
Properties=species:S:1:pos:R:3 isomer=D25 dft_rel_eV=0.888639519456774 dft_mult=53 record_id=2cff0d3a4ea0bf8fe911 n_records=1 pbc="F F F"
Fe       0.43776688       1.94955231       1.64454006
Fe       0.38462588       2.76502431      -0.69441394
Fe      -1.38306212      -1.79101069       1.48949406
Fe       0.54671388      -1.41681469      -2.70524794
Fe       0.68031488       0.91077931      -2.20261494
Fe       0.00700088      -0.42742069       2.73486006
Fe      -1.68777512       1.65893731      -0.60402194
Fe       0.00314188       0.13450931       0.20114606
Fe      -0.49897712      -2.13830169      -0.75116194
Fe       1.08566588      -2.00848469       1.20955306
Fe      -2.59784812      -0.66215969      -0.19835794
Fe       2.23684288       1.40181931      -0.35066894
Fe      -1.44745812      -0.18368069      -2.16796394
Fe       2.13544288       0.09336931       1.62743506
Fe       1.99015788      -1.01300869      -0.85807694
Fe      -1.89255312       0.72689031       1.62550006
16
Properties=species:S:1:pos:R:3 isomer=D26 dft_rel_eV=0.904590834164992 dft_mult=49 record_id=c665f623f9c2a3269ab0 n_records=16 pbc="F F F"
Fe       0.36343687       1.88306719       1.49580612
Fe       0.42325687       2.79647719      -0.64075088
Fe      -1.35671113      -1.75572681       1.60150212
Fe       0.53938387      -1.27040181      -2.54859388
Fe       0.66067987       1.04852319      -2.19277488
Fe       0.05518887      -0.30952781       2.72008512
Fe      -1.62458313       1.61968519      -0.55799788
Fe       0.01790187       0.02574719      -0.05663988
Fe      -0.58947213      -2.23594681      -0.76028488
Fe       0.94480287      -2.06879681       1.16815812
Fe      -2.49223913      -0.79735581      -0.20579988
Fe       2.27068687       1.38018419      -0.36063388
Fe      -1.49221113      -0.14551781      -2.22426288
Fe       2.06739287       0.12679319       1.61120812
Fe       2.01283587      -1.00862281      -0.72083088
Fe      -1.80035013       0.71141919       1.67181012
16
Properties=species:S:1:pos:R:3 isomer=D27 dft_rel_eV=0.9327763880137354 dft_mult=49 record_id=c90e069021ec58ece3bd n_records=15 pbc="F F F"
Fe      -0.00080663      -0.10554844       0.00024537
Fe      -1.22279263      -2.50143444       0.10943937
Fe      -0.23561463      -1.82420044      -1.92584163
Fe       2.01771738      -0.74303644      -1.37874962
Fe       2.04822738      -0.35512944       1.07971537
Fe       1.21987337      -2.50188044      -0.09392562
Fe       0.23224437      -1.81280144       1.93759537
Fe      -2.01793662      -0.73404044       1.38266537
Fe      -2.04913562      -0.36064444      -1.07818562
Fe       0.16955437       0.38132156      -2.60932663
Fe      -1.19464562       1.84197056      -1.42747362
Fe      -1.47656663       1.63444356       1.01874438
Fe       0.00158937       3.20625956      -0.00963163
Fe      -0.16780963       0.39792356       2.60708737
Fe       1.19707137       1.85030456       1.41593338
Fe       1.47903038       1.62649256      -1.02829163
16
Properties=species:S:1:pos:R:3 isomer=D28 dft_rel_eV=0.9419384617358446 dft_mult=53 record_id=dd8bc85f2d838c2f4805 n_records=1 pbc="F F F"
Fe      -1.36935494      -1.70300025      -0.89593037
Fe      -2.49208994       0.39265175      -0.30214137
Fe       1.28047406       2.11625975       0.34215162
Fe      -1.53754794      -0.70674825       1.63203862
Fe       0.02149406       0.23974475      -0.16448537
Fe      -0.85451894      -2.95878025       1.03800763
Fe       0.65490006      -1.11388025      -2.23398037
Fe       1.05759406      -1.96488325      -0.00065037
Fe       2.44910506      -0.02700825      -1.03528437
Fe      -1.24795694       0.39782675      -2.38743937
Fe       1.02890206       1.37892275      -2.18904638
Fe      -0.87937294       2.38488475      -1.08160238
Fe       2.23984806       0.13473575       1.25673863
Fe       0.30958206       0.92426275       2.48917863
Fe      -1.27923894       1.94486775       1.19991762
Fe       0.61818106      -1.43985625       2.33252763
16
Properties=species:S:1:pos:R:3 isomer=D29 dft_rel_eV=1.0041192003991455 dft_mult=53 record_id=63f5f1949746731c157e n_records=3 pbc="F F F"
Fe       0.40584406       1.97823637       1.65542900
Fe       0.39421106       2.77861437      -0.72692800
Fe      -1.37166394      -1.81763063       1.47534400
Fe       0.55097706      -1.43571763      -2.72866300
Fe       0.65918106       0.86930837      -2.19157100
Fe       0.00524006      -0.44783163       2.73675100
Fe      -1.66579994       1.67952637      -0.59778000
Fe       0.02838706       0.17301237       0.23872800
Fe      -0.49555394      -2.12361063      -0.77280300
Fe       1.07287406      -1.99421363       1.19772000
Fe      -2.56598594      -0.66527263      -0.18539800
Fe       2.21842006       1.40043337      -0.32132500
Fe      -1.47915594      -0.19109463      -2.18966600
Fe       2.15113606       0.09456037       1.64728300
Fe       1.96764406      -1.02777963      -0.85951500
Fe      -1.87575494       0.72945937       1.62239400
16
Properties=species:S:1:pos:R:3 isomer=D30 dft_rel_eV=1.0050498298369348 dft_mult=51 record_id=f6e645c2ef555be9385e n_records=2 pbc="F F F"
Fe      -0.00114356      -0.14906863      -0.00739069
Fe      -1.21224256      -2.48392463      -0.10516069
Fe       0.17965544      -1.84705063      -2.03492769
Fe       2.00436844      -0.68779862      -1.44562969
Fe       2.00107144      -0.51041163       1.14231231
Fe       1.21058644      -2.48528162       0.17653731
Fe      -0.17229456      -1.84370663       2.02865731
Fe      -2.00514456      -0.68591762       1.43462231
Fe      -1.99944456      -0.50466763      -1.14762369
Fe      -0.05258856       0.39674837      -2.62577669
Fe      -1.25873756       1.84417338      -1.22212569
Fe      -1.39317056       1.69077838       1.13978231
Fe       0.00070344       3.35562837      -0.00596969
Fe       0.04766744       0.39945137       2.61306331
Fe       1.25890444       1.83864937       1.21298931
Fe       1.39180944       1.67239837      -1.15335969
16
Properties=species:S:1:pos:R:3 isomer=D31 dft_rel_eV=1.0376626763027161 dft_mult=53 record_id=5f4bf2503d2dde8c1ed6 n_records=3 pbc="F F F"
Fe      -1.35928581      -1.70463925      -0.92102256
Fe      -2.47774081       0.39329975      -0.31537356
Fe       1.29300419       2.15838075       0.30514444
Fe      -1.50677381      -0.71850625       1.59588944
Fe       0.02159719       0.27990275      -0.19754956
Fe      -0.88947281      -2.95344425       1.03717544
Fe       0.65948219      -1.10282425      -2.23278856
Fe       1.03310019      -1.88889125       0.09942744
Fe       2.43642519      -0.00376725      -1.02288656
Fe      -1.26659981       0.37800375      -2.40000856
Fe       0.98832919       1.40498575      -2.22586556
Fe      -0.91368781       2.39989775      -1.09561356
Fe       2.25598419       0.10663375       1.27795044
Fe       0.35890219       0.83721875       2.47043744
Fe      -1.23475981       1.91982475       1.18224844
Fe       0.60149619      -1.50607525       2.44283544
16
Properties=species:S:1:pos:R:3 isomer=D32 dft_rel_eV=1.1765768030891195 dft_mult=53 record_id=42bc3bafb42e0b9cfc34 n_records=1 pbc="F F F"
Fe      -1.30353494      -1.68688212      -0.93075338
Fe      -2.48793094       0.46716988      -0.33050538
Fe       1.29622106       2.19799688       0.29138662
Fe      -1.47650594      -0.70574912       1.56414962
Fe       0.03960806       0.28984388      -0.24142238
Fe      -0.93615994      -2.93441512       1.10173462
Fe       0.68965106      -1.11376112      -2.23379338
Fe       1.00196706      -1.83367912       0.23086962
Fe       2.44696906       0.03489888      -1.04195438
Fe      -1.27939894       0.35491988      -2.41580038
Fe       0.96562006       1.46190188      -2.23600338
Fe      -0.98906294       2.38411188      -1.12448738
Fe       2.28888006       0.09824688       1.25673362
Fe       0.40736206       0.72500188       2.40397262
Fe      -1.24321494       1.92051888       1.17861362
Fe       0.57953006      -1.66012412       2.52725962
16
Properties=species:S:1:pos:R:3 isomer=D33 dft_rel_eV=1.2390976841561496 dft_mult=53 record_id=160d5d280d7bb7b246de n_records=3 pbc="F F F"
Fe      -1.30449775      -1.66086112      -0.90890250
Fe      -2.49555875       0.51711588      -0.33029850
Fe       1.28242025       2.20278288       0.28241950
Fe      -1.47159675      -0.70112512       1.55162350
Fe       0.04574425       0.29553888      -0.25122250
Fe      -0.92642175      -2.96798412       1.09982950
Fe       0.69901125      -1.12947112      -2.21196950
Fe       1.01367525      -1.80824212       0.29399450
Fe       2.44983625       0.05416988      -1.07176250
Fe      -1.27151575       0.34600788      -2.42390350
Fe       0.96103825       1.47171288      -2.23978050
Fe      -1.00326075       2.37807588      -1.13434850
Fe       2.32268725       0.13953388       1.22363350
Fe       0.41413325       0.67717288       2.36333850
Fe      -1.23997975       1.93096488       1.18602650
Fe       0.52428525      -1.74539212       2.57132250
16
Properties=species:S:1:pos:R:3 isomer=D34 dft_rel_eV=1.2411902396706864 dft_mult=53 record_id=f88839ee460ce953fc56 n_records=2 pbc="F F F"
Fe       0.05940031       0.09928481      -0.07118469
Fe      -0.03286369      -2.31941319       0.79666831
Fe       1.69400931      -0.32260319       1.64016131
Fe      -1.19643469       0.07715381      -2.18751469
Fe      -2.43265769       0.70236081      -0.26042869
Fe       2.44558731       0.82072481      -0.32186069
Fe      -1.97725369      -1.68513319      -0.55143469
Fe       2.01678431      -1.63350919      -0.39476069
Fe       0.42981431       1.96973781      -1.67386769
Fe      -0.43305969       1.22961481       1.92920031
Fe       0.05383931      -2.03259319      -1.70053069
Fe      -0.12780869      -1.13689019       2.82856731
Fe       1.45964731      -0.15244719      -2.25544669
Fe      -2.03199469      -0.69232719       1.62443831
Fe      -1.11549069       2.60671381       0.05817531
Fe       1.18848131       2.46932581       0.53981831
16
Properties=species:S:1:pos:R:3 isomer=D35 dft_rel_eV=1.279024951159954 dft_mult=53 record_id=c57423f36dae2238ee96 n_records=4 pbc="F F F"
Fe      -1.31354487      -1.62782125      -0.88117738
Fe      -2.49864787       0.56960175      -0.33153637
Fe       1.26598712       2.19782075       0.26797763
Fe      -1.46557587      -0.70208825       1.53613362
Fe       0.04856913       0.30805575      -0.25524737
Fe      -0.91195087      -3.01653125       1.08036763
Fe       0.70290713      -1.14479125      -2.18064638
Fe       1.03099813      -1.76633125       0.36519763
Fe       2.44558312       0.07385075      -1.10554037
Fe      -1.25864287       0.33401875      -2.43569437
Fe       0.95186112       1.47317075      -2.24949137
Fe      -1.01089787       2.37445575      -1.14035837
Fe       2.36231712       0.19535575       1.18800063
Fe       0.41446313       0.62898175       2.31699162
Fe      -1.21959487       1.93222775       1.19911262
Fe       0.45616912      -1.82997625       2.62591062
16
Properties=species:S:1:pos:R:3 isomer=D36 dft_rel_eV=1.2985981012461707 dft_mult=53 record_id=a82a31596d5093df6e29 n_records=2 pbc="F F F"
Fe      -1.33244587      -1.59783425      -0.83508544
Fe      -2.49795587       0.60246675      -0.31479544
Fe       1.24938912       2.22866375       0.25310656
Fe      -1.46345387      -0.71699225       1.52155456
Fe       0.04461413       0.31798075      -0.25238044
Fe      -0.86532987      -3.06405225       1.02373456
Fe       0.70608513      -1.17225525      -2.13941844
Fe       1.05007713      -1.72156825       0.43561156
Fe       2.44845512       0.07096875      -1.13419344
Fe      -1.25162387       0.31669075      -2.43869844
Fe       0.94531813       1.45395375      -2.26829544
Fe      -1.00188587       2.38285775      -1.14508144
Fe       2.39032913       0.26045275       1.15245256
Fe       0.42703013       0.56990675       2.29228556
Fe      -1.20322887       1.96290875       1.21359956
Fe       0.35462613      -1.89414825       2.63560356
16
Properties=species:S:1:pos:R:3 isomer=D37 dft_rel_eV=1.3069492756621912 dft_mult=53 record_id=c982c0958305b3026282 n_records=9 pbc="F F F"
Fe      -1.33904187      -1.59016125      -0.81895656
Fe      -2.49274587       0.60589575      -0.31107856
Fe       1.24252313       2.23611975       0.25031144
Fe      -1.46277887      -0.72501025       1.51594744
Fe       0.04146013       0.32310175      -0.24827656
Fe      -0.86146388      -3.08002825       0.99911244
Fe       0.70416812      -1.17661725      -2.12927756
Fe       1.06027012      -1.70071625       0.45209344
Fe       2.44692113       0.07091875      -1.14321656
Fe      -1.24749187       0.30470775      -2.44376756
Fe       0.93885313       1.44463475      -2.27737956
Fe      -0.99612487       2.38695275      -1.14438256
Fe       2.40087413       0.28252575       1.14322744
Fe       0.42569913       0.55733675       2.29150144
Fe      -1.18383788       1.96656275       1.22193044
Fe       0.32271613      -1.90622325       2.64221144
16
Properties=species:S:1:pos:R:3 isomer=D38 dft_rel_eV=1.347641182714142 dft_mult=53 record_id=dee5439b0be68b175d9b n_records=2 pbc="F F F"
Fe       0.30805600       2.03790025       1.64777006
Fe       0.41693800       2.74236925      -0.71407494
Fe      -1.31949400      -1.82798475       1.46815906
Fe       0.52324100      -1.45320775      -2.83505494
Fe       0.56609200       0.76733925      -2.15349994
Fe      -0.00387100      -0.36643575       2.73566906
Fe      -1.65864000       1.73833825      -0.55028194
Fe       0.12640900       0.25281325       0.30070506
Fe      -0.45169800      -2.06589875      -0.85394894
Fe       1.04917200      -1.99492575       1.19376706
Fe      -2.45853800      -0.72463575      -0.19251194
Fe       2.23745800       1.35371425      -0.26531094
Fe      -1.56338000      -0.20350875      -2.27978394
Fe       2.17330400       0.06518925       1.69585906
Fe       1.93948900      -1.06699875      -0.83912894
Fe      -1.88453800       0.74593225       1.64166706
16
Properties=species:S:1:pos:R:3 isomer=D39 dft_rel_eV=1.3877752562984824 dft_mult=53 record_id=5f25c97d141165920543 n_records=1 pbc="F F F"
Fe      -1.42112587      -1.55624425      -0.81277538
Fe      -2.51570987       0.63505175      -0.34289637
Fe       1.30354313       2.23701175       0.16774963
Fe      -1.48456787      -0.77202825       1.52259762
Fe       0.01758313       0.36068775      -0.21976637
Fe      -0.72293687      -3.09712825       0.90711262
Fe       0.64351313      -1.22410225      -2.05574638
Fe       1.06642113      -1.62947225       0.51169062
Fe       2.42820513       0.04341175      -1.12444037
Fe      -1.22859688       0.35494475      -2.43936438
Fe       0.95860212       1.38841075      -2.32269137
Fe      -0.97386687       2.40990275      -1.13308237
Fe       2.43015512       0.34913275       1.15168863
Fe       0.44668712       0.53276775       2.28790162
Fe      -1.22440187       1.91333175       1.24122162
Fe       0.27649613      -1.94567825       2.66080063
16
Properties=species:S:1:pos:R:3 isomer=D40 dft_rel_eV=1.4080858350498602 dft_mult=53 record_id=e1a0f93ca1f1b1bd691d n_records=4 pbc="F F F"
Fe      -1.42983775      -1.55422825      -0.80727744
Fe      -2.52302375       0.62420475      -0.33290644
Fe       1.30824825       2.23717475       0.15570156
Fe      -1.48891175      -0.77414225       1.52088556
Fe       0.01723025       0.36259675      -0.21697044
Fe      -0.70580575      -3.09847025       0.89572856
Fe       0.64214425      -1.23342125      -2.04055644
Fe       1.06706425      -1.62437125       0.50743256
Fe       2.43356425       0.03567975      -1.12814144
Fe      -1.22843475       0.36699275      -2.42719144
Fe       0.96724425       1.38585075      -2.31995544
Fe      -0.96172975       2.41735375      -1.12552344
Fe       2.43734625       0.35295875       1.14764556
Fe       0.43965625       0.52838475       2.27402156
Fe      -1.24198975       1.91264375       1.23678156
Fe       0.26723525      -1.93920725       2.66032556
16
Properties=species:S:1:pos:R:3 isomer=D41 dft_rel_eV=1.4742612050613388 dft_mult=53 record_id=f90a5fddf94f12ea8730 n_records=4 pbc="F F F"
Fe       0.21634000       2.08640319       1.63675694
Fe       0.43665600       2.66517719      -0.66022606
Fe      -1.27277400      -1.76296581       1.50362394
Fe       0.45162100      -1.43404881      -2.94072606
Fe       0.51447600       0.71442619      -2.13497106
Fe      -0.01832000      -0.28141981       2.75401594
Fe      -1.68813900       1.72297019      -0.50175806
Fe       0.19231800       0.25245219       0.31716694
Fe      -0.39007900      -1.99891781      -0.88410206
Fe       1.07255700      -2.04218381       1.22810194
Fe      -2.42363700      -0.73846881      -0.23605806
Fe       2.32172100       1.31095019      -0.29341606
Fe      -1.59557600      -0.18278681      -2.33399706
Fe       2.16285300       0.02583319       1.71556894
Fe       1.97745500      -1.07511081      -0.82716406
Fe      -1.95747200       0.73769019       1.65718394
16
Properties=species:S:1:pos:R:3 isomer=D42 dft_rel_eV=1.5370269886916503 dft_mult=53 record_id=0440dc1a50b30875118f n_records=1 pbc="F F F"
Fe       0.05004838       0.08783688      -0.07180062
Fe      -0.02712362      -2.33901412       0.83146038
Fe       1.68384537      -0.50189112       1.75153737
Fe      -1.15840663       0.10009288      -2.21841762
Fe      -2.37164162       0.73753388      -0.24224962
Fe       2.42258438       0.76804388      -0.33455462
Fe      -1.93050762      -1.67073012      -0.52620762
Fe       2.00112837      -1.65583912      -0.33170162
Fe       0.38397037       1.96772987      -1.74288162
Fe      -0.41240462       1.19383388       1.93840338
Fe       0.08042637      -1.95420212      -1.74431462
Fe      -0.14582762      -1.22446112       2.91362938
Fe       1.46181438      -0.11915012      -2.29601662
Fe      -1.97253763      -0.68341412       1.63408638
Fe      -1.16585263       2.70509288       0.04613538
Fe       1.10048437       2.58853788       0.39289238
16
Properties=species:S:1:pos:R:3 isomer=D43 dft_rel_eV=1.6410615604836494 dft_mult=49 record_id=66554b5435a605b24b67 n_records=39 pbc="F F F"
Fe      -1.11589300      -0.64761400      -0.63942875
Fe      -1.89465700       1.59954600       0.21217425
Fe       0.41267500      -1.84554600       0.75627325
Fe      -2.07891500       0.80929900      -2.22753575
Fe       1.45505300      -0.48690100      -1.11422175
Fe      -2.02502200      -1.71561800      -2.43940075
Fe      -0.01306100       1.58532100      -1.43799575
Fe      -1.62091600      -0.39443500       1.71048625
Fe       0.57064800      -0.61422300       2.85708225
Fe       2.49271700      -0.64318600       1.21734225
Fe      -0.77374400       1.58715500       2.56505425
Fe       0.37431900       0.71520000       0.74188325
Fe       2.38261900       1.48126400       0.06754625
Fe       0.19885900      -2.40766000      -1.73851375
Fe       1.77558100       1.35518800       2.51028725
Fe      -0.14026300      -0.37779000      -3.04103275
16
Properties=species:S:1:pos:R:3 isomer=D44 dft_rel_eV=1.650044039124623 dft_mult=49 record_id=e2a2c1f189aae14f3e01 n_records=34 pbc="F F F"
Fe      -1.11043100      -0.64542500      -0.65486281
Fe      -1.88837300       1.58578200       0.21959419
Fe       0.40591000      -1.83534800       0.78092519
Fe      -2.06188100       0.84642000      -2.21432481
Fe       1.45889300      -0.51796200      -1.09637281
Fe      -2.03802100      -1.66500400      -2.46143481
Fe       0.01951800       1.57288400      -1.45832881
Fe      -1.63373900      -0.43826600       1.68347519
Fe       0.58837200      -0.58421700       2.87306419
Fe       2.49479700      -0.60562700       1.21508519
Fe      -0.78084700       1.52147700       2.60501219
Fe       0.35695100       0.71517500       0.74440219
Fe       2.34676800       1.48916100       0.02185019
Fe       0.16737900      -2.42633300      -1.71221881
Fe       1.78483000       1.38009400       2.48270919
Fe      -0.11012600      -0.39281100      -3.02857481
16
Properties=species:S:1:pos:R:3 isomer=D45 dft_rel_eV=1.674991438165307 dft_mult=53 record_id=fe6287ad7ed7e3d3e1f1 n_records=1 pbc="F F F"
Fe      -0.02692994       2.16745125       1.67977900
Fe       0.49617406       2.60166025      -0.58288100
Fe      -1.25685394      -1.68655175       1.54106200
Fe       0.36363806      -1.48330475      -3.00204200
Fe       0.53903206       0.68125125      -2.09750700
Fe      -0.00287494      -0.22998275       2.78013500
Fe      -1.67345094       1.61873025      -0.51682600
Fe       0.24270006       0.25016525       0.38170900
Fe      -0.34031194      -1.82402175      -0.83103000
Fe       1.09830506      -2.08465675       1.22924900
Fe      -2.44817294      -0.67119775      -0.25428400
Fe       2.40468306       1.27070125      -0.36618300
Fe      -1.58229494      -0.16329475      -2.38542800
Fe       2.21820806      -0.05149675       1.61668900
Fe       2.01468006      -1.05609575      -0.85056800
Fe      -2.04653094       0.66064325       1.65812600
16
Properties=species:S:1:pos:R:3 isomer=D46 dft_rel_eV=1.6942543784389272 dft_mult=49 record_id=56de93e34be11b6a7609 n_records=27 pbc="F F F"
Fe      -1.10514987      -0.64058006      -0.65182575
Fe      -1.92633687       1.51916394       0.28688225
Fe       0.39342913      -1.82163406       0.79545525
Fe      -2.02985587       0.87164794      -2.19792175
Fe       1.46438713      -0.53951406      -1.09684975
Fe      -2.02697087      -1.65526606      -2.47793075
Fe       0.09678613       1.55247894      -1.45583375
Fe      -1.67213087      -0.48470606       1.69674025
Fe       0.55953713      -0.53184006       2.88034225
Fe       2.48331613      -0.59125406       1.23866325
Fe      -0.80562287       1.49871094       2.64221025
Fe       0.33588913       0.72792494       0.74795625
Fe       2.38776613       1.43869394      -0.04284775
Fe       0.17014313      -2.40893806      -1.73196175
Fe       1.80245213       1.43060094       2.41357425
Fe      -0.12763887      -0.36548906      -3.04665275
16
Properties=species:S:1:pos:R:3 isomer=D47 dft_rel_eV=1.7380402199923992 dft_mult=47 record_id=fbbaab356424b2ff5bb1 n_records=26 pbc="F F F"
Fe      -1.11052500      -0.64847219      -0.62822175
Fe      -1.81982700       1.49193381       0.11963525
Fe       0.47295100      -1.77812219       0.79179125
Fe      -2.00276700       0.83908581      -2.33123375
Fe       1.42664900      -0.47720419      -1.09942175
Fe      -2.14151200      -1.60355519      -2.43923375
Fe       0.12122400       1.51797881      -1.51980475
Fe      -1.63677500      -0.53672719       1.69532525
Fe       0.54269000      -0.59885619       2.93389025
Fe       2.46603800      -0.48860819       1.29431725
Fe      -0.69698000       1.41564681       2.72272625
Fe       0.29412400       0.76150581       0.78594925
Fe       2.33981300       1.49525981       0.00179425
Fe       0.07485500      -2.37848019      -1.73053375
Fe       1.82262800       1.41583181       2.49423025
Fe      -0.15258600      -0.42721719      -3.09120975
16
Properties=species:S:1:pos:R:3 isomer=D48 dft_rel_eV=1.7411640872014686 dft_mult=53 record_id=3a8e18d9f89ef24afd52 n_records=1 pbc="F F F"
Fe      -0.15625613       2.19621825       1.69490313
Fe       0.52002487       2.60310525      -0.54489288
Fe      -1.24385313      -1.71225775       1.54071113
Fe       0.35689487      -1.55389175      -2.98447987
Fe       0.55392187       0.68517125      -2.07943687
Fe       0.01227387      -0.19000575       2.76982913
Fe      -1.65928313       1.62571125      -0.55001787
Fe       0.25547287       0.27833625       0.42253412
Fe      -0.35316913      -1.75342975      -0.82113088
Fe       1.09222187      -2.09083975       1.19893712
Fe      -2.45828513      -0.65804375      -0.24736188
Fe       2.43017087       1.25958625      -0.38076587
Fe      -1.57403213      -0.17094575      -2.41090088
Fe       2.27795687      -0.10399075       1.58622113
Fe       1.99995287      -1.04761875      -0.87463788
Fe      -2.05401213       0.63289525       1.68048913
16
Properties=species:S:1:pos:R:3 isomer=D49 dft_rel_eV=1.763333203503862 dft_mult=53 record_id=d11c540ecff4bf166019 n_records=2 pbc="F F F"
Fe       0.04437144       0.07855194      -0.07385244
Fe      -0.02463256      -2.34629006       0.84750756
Fe       1.67868544      -0.57523106       1.79803456
Fe      -1.13773056       0.11058194      -2.22899444
Fe      -2.34985456       0.75046794      -0.23320744
Fe       2.42708344       0.73989794      -0.35544244
Fe      -1.90928256      -1.66474206      -0.51383944
Fe       1.99534744      -1.66929706      -0.30770744
Fe       0.36792944       1.96638594      -1.77547944
Fe      -0.41401256       1.18072294       1.95166456
Fe       0.09137644      -1.91956806      -1.76191044
Fe      -0.15367956      -1.25833206       2.94859956
Fe       1.46199644      -0.10853806      -2.31765344
Fe      -1.94923856      -0.68060506       1.63647056
Fe      -1.18669756       2.74777294       0.04092256
Fe       1.05833844       2.64822194       0.34488756
16
Properties=species:S:1:pos:R:3 isomer=D50 dft_rel_eV=1.7706095281755552 dft_mult=51 record_id=77f48eae08366c2797af n_records=59 pbc="F F F"
Fe      -1.94751419       1.07244787       0.82582625
Fe       1.96994481       2.13329488      -0.25766675
Fe      -2.70961819      -1.27752912       0.97202325
Fe       1.99004681      -0.34597612      -0.01806675
Fe      -0.18877519       0.89439088      -0.93106475
Fe       0.60510881       1.12214287       1.60474825
Fe       0.31193981      -1.33634212      -1.77765075
Fe      -0.38170119      -0.97646812       0.64758825
Fe       1.32200281      -1.25750112       2.15086625
Fe      -2.10536419      -0.57802912      -1.19787975
Fe       1.90406681       0.62767488      -2.21457575
Fe      -1.13311619      -0.19346012       2.70225225
Fe       1.22850381      -2.67636812       0.03773925
Fe      -1.26342819      -2.77735212      -0.59071175
Fe       0.64997581       2.65700388      -2.18958275
Fe      -0.25207219       2.91207088       0.23615525
16
Properties=species:S:1:pos:R:3 isomer=D51 dft_rel_eV=1.791069769533351 dft_mult=53 record_id=b1d47c824a021efb46c2 n_records=5 pbc="F F F"
Fe      -0.23627600       2.21281131       1.69580025
Fe       0.53329000       2.60588031      -0.52313175
Fe      -1.22449500      -1.73664269       1.54554525
Fe       0.35961100      -1.59668769      -2.96892275
Fe       0.55852000       0.68938631      -2.06931075
Fe       0.02047500      -0.16284569       2.75825825
Fe      -1.65189700       1.64356331      -0.57127975
Fe       0.26094200       0.29991431       0.44716725
Fe      -0.36517500      -1.71884769      -0.82040575
Fe       1.08870700      -2.09596169       1.17524625
Fe      -2.46324800      -0.65427369      -0.24247475
Fe       2.44584600       1.25147931      -0.38343375
Fe      -1.57058500      -0.17599769      -2.42606075
Fe       2.31301300      -0.14146069       1.57884925
Fe       1.98531300      -1.04291969      -0.89254075
Fe      -2.05404100       0.62260231       1.69669425
16
Properties=species:S:1:pos:R:3 isomer=D52 dft_rel_eV=1.833350821514614 dft_mult=51 record_id=09d08b913a5a2aa9f713 n_records=2 pbc="F F F"
Fe      -1.94969706       1.03055269       0.81717737
Fe       1.98266094       2.12740769      -0.20434362
Fe      -2.69360606      -1.33366431       1.00177438
Fe       2.00243994      -0.36435531       0.00083937
Fe      -0.15921506       0.86066669      -0.94422563
Fe       0.60626394       1.13158069       1.61347937
Fe       0.28824894      -1.35687131      -1.82304863
Fe      -0.36457906      -1.00940431       0.64446438
Fe       1.35748394      -1.17203531       2.21699938
Fe      -2.18050606      -0.54703931      -1.16902463
Fe       1.91597994       0.65033969      -2.20422563
Fe      -1.09469506      -0.18589631       2.71418537
Fe       1.20133694      -2.66398631       0.01219837
Fe      -1.31865306      -2.75023731      -0.64948763
Fe       0.70745894       2.67192169      -2.17634463
Fe      -0.30092206       2.91102069       0.14958237
16
Properties=species:S:1:pos:R:3 isomer=D53 dft_rel_eV=1.8778768128249794 dft_mult=53 record_id=802b041bd666aba6f583 n_records=1 pbc="F F F"
Fe      -0.39933400       2.28418331       1.65194713
Fe       0.57112600       2.64114331      -0.51349688
Fe      -1.20223000      -1.76038869       1.61906213
Fe       0.35001400      -1.58544369      -3.00174987
Fe       0.56119400       0.69946531      -2.02471987
Fe       0.06132600      -0.16520169       2.78836212
Fe      -1.58810900       1.60610331      -0.62761487
Fe       0.29058900       0.36219631       0.51259913
Fe      -0.38917400      -1.66853169      -0.81148288
Fe       1.07733100      -2.11129669       1.13554212
Fe      -2.43804700      -0.67611469      -0.23215588
Fe       2.45636100       1.23081531      -0.37425088
Fe      -1.57964800      -0.19083769      -2.44460388
Fe       2.35123500      -0.22669469       1.54674513
Fe       1.95685400      -1.05535269      -0.91830388
Fe      -2.07948800       0.61595531       1.69412112
16
Properties=species:S:1:pos:R:3 isomer=D54 dft_rel_eV=1.8887151079252362 dft_mult=53 record_id=a2842f2048db13848932 n_records=7 pbc="F F F"
Fe      -0.41301613       2.28807038       1.64455600
Fe       0.57538387       2.65061738      -0.51010600
Fe      -1.20214013      -1.74529862       1.62391500
Fe       0.34101387      -1.57112462      -3.00538400
Fe       0.56355487       0.69971038      -2.01269000
Fe       0.07289287      -0.16968162       2.79555300
Fe      -1.57300113       1.57624838      -0.63554300
Fe       0.30275887       0.36655538       0.52401500
Fe      -0.39414113      -1.65320962      -0.81015000
Fe       1.07161487      -2.11119162       1.14153000
Fe      -2.44987213      -0.68572162      -0.23449700
Fe       2.45685287       1.22969838      -0.37930100
Fe      -1.58603113      -0.19022862      -2.45448400
Fe       2.36054187      -0.23329762       1.53861600
Fe       1.95864487      -1.05950962      -0.91207000
Fe      -2.08505713       0.60836338       1.68604000
16
Properties=species:S:1:pos:R:3 isomer=D55 dft_rel_eV=1.9386779342312366 dft_mult=53 record_id=86bc6b7d563001d0fb03 n_records=6 pbc="F F F"
Fe      -0.42550813       2.27854731       1.63210106
Fe       0.56465487       2.68997431      -0.48611194
Fe      -1.19930812      -1.70379469       1.63662506
Fe       0.31726287      -1.53199569      -3.00015194
Fe       0.56524388       0.70505331      -1.98173494
Fe       0.11454987      -0.16669469       2.78680006
Fe      -1.53756213       1.50365731      -0.65771994
Fe       0.33685187       0.37496031       0.54497306
Fe      -0.39865712      -1.61309769      -0.81138294
Fe       1.04611187      -2.11370069       1.18648106
Fe      -2.53805613      -0.73551469      -0.26471694
Fe       2.46520987       1.22997231      -0.40344494
Fe      -1.60559113      -0.17707869      -2.51357294
Fe       2.41458287      -0.24757769       1.53195606
Fe       1.96873787      -1.08360369      -0.88083094
Fe      -2.08852313       0.59089331       1.68073106
16
Properties=species:S:1:pos:R:3 isomer=D56 dft_rel_eV=2.25589466933161 dft_mult=53 record_id=fe9ef47f7cfcb0930749 n_records=3 pbc="F F F"
Fe      -1.03646894      -0.64124294      -0.64731281
Fe      -1.87043294       1.52497406       0.29053519
Fe       0.36479806      -1.87705794       0.82972319
Fe      -2.02655094       0.89621906      -2.15397181
Fe       1.50794706      -0.51992694      -1.13914481
Fe      -2.03959294      -1.68618594      -2.44308081
Fe       0.16171106       1.63135006      -1.44146481
Fe      -1.74571894      -0.52151494       1.69413019
Fe       0.49002706      -0.54849094       2.88564219
Fe       2.48875406      -0.55461194       1.18162019
Fe      -0.85202494       1.46336406       2.65057819
Fe       0.35778606       0.70726206       0.75726419
Fe       2.43367506       1.52786006      -0.08218081
Fe       0.09752906      -2.47172294      -1.71594381
Fe       1.79563106       1.45892006       2.39485119
Fe      -0.12706894      -0.38919494      -3.06124481
16
Properties=species:S:1:pos:R:3 isomer=D57 dft_rel_eV=2.3511399634880945 dft_mult=53 record_id=1699634d999540aa99e3 n_records=2 pbc="F F F"
Fe      -1.01464188      -0.65203100      -0.63003369
Fe      -1.88006788       1.60131400       0.22173631
Fe       0.47086012      -1.85116300       0.82143331
Fe      -2.09043688       0.79303300      -2.12960869
Fe       1.53996012      -0.48916600      -1.19086069
Fe      -2.07393488      -1.72747500      -2.40953769
Fe       0.17496412       1.62443300      -1.39758969
Fe      -1.77968288      -0.40470500       1.64479631
Fe       0.47536812      -0.58397400       2.87077431
Fe       2.48696012      -0.58607700       1.21831031
Fe      -0.84794788       1.47946500       2.62275831
Fe       0.37672513       0.69705400       0.75973931
Fe       2.44872012       1.50622100      -0.04818469
Fe       0.13431012      -2.44561300      -1.78359669
Fe       1.77975712       1.40994800       2.45220431
Fe      -0.20091288      -0.37126400      -3.02234069
16
Properties=species:S:1:pos:R:3 isomer=D58 dft_rel_eV=2.477542294887826 dft_mult=53 record_id=ec4edd63d4dd8156878a n_records=2 pbc="F F F"
Fe      -1.00225688      -0.70668913      -0.58400062
Fe      -1.80109888       1.68226487       0.19562738
Fe       0.52726913      -1.88927913       0.74617537
Fe      -2.09571588       0.71635387      -2.05243962
Fe       1.56035312      -0.44067413      -1.18252962
Fe      -2.06755088      -1.76645213      -2.35038862
Fe       0.18199612       1.61319388      -1.40956562
Fe      -1.86648188      -0.30245513       1.62019638
Fe       0.39596712      -0.65482913       2.80489538
Fe       2.51797213      -0.54082112       1.19773838
Fe      -0.84406288       1.49633087       2.59733038
Fe       0.37787312       0.70508988       0.75361437
Fe       2.44809712       1.52985987      -0.03347662
Fe       0.14590912      -2.42530713      -1.79175562
Fe       1.76247013       1.34694787       2.48018537
Fe      -0.24073988      -0.36353413      -2.99160662
16
Properties=species:S:1:pos:R:3 isomer=D59 dft_rel_eV=2.591533513041213 dft_mult=53 record_id=e4505f47a14cd75a680d n_records=1 pbc="F F F"
Fe      -0.99340181      -0.75282100      -0.54088369
Fe      -1.72921181       1.74127100       0.18902031
Fe       0.58649219      -1.93693100       0.67988431
Fe      -2.13786781       0.70347700      -2.00708769
Fe       1.57419319      -0.42046900      -1.16756869
Fe      -2.08006481      -1.79274200      -2.31395469
Fe       0.17725719       1.59417400      -1.46777969
Fe      -1.94062281      -0.23414600       1.60398431
Fe       0.32749319      -0.70309000       2.75485331
Fe       2.55609219      -0.50386800       1.18325731
Fe      -0.84043381       1.52418300       2.61365931
Fe       0.37670719       0.70942900       0.75734831
Fe       2.45440719       1.56829800      -0.00697369
Fe       0.17588919      -2.42429100      -1.78127269
Fe       1.75328019       1.30109100       2.52062331
Fe      -0.26020881      -0.37356500      -3.01710969
16
Properties=species:S:1:pos:R:3 isomer=D60 dft_rel_eV=2.675725542125292 dft_mult=53 record_id=9e0ed22ce39cc0500f0b n_records=2 pbc="F F F"
Fe      -0.99363494      -0.77160606      -0.52418669
Fe      -1.69585294       1.76582694       0.18820431
Fe       0.63934206      -1.96790606       0.64954831
Fe      -2.17653994       0.71526594      -1.99179869
Fe       1.57519206      -0.42268806      -1.16021469
Fe      -2.09686594      -1.79225806      -2.30463869
Fe       0.16943406       1.56520494      -1.51526869
Fe      -1.97762994      -0.19696206       1.59684831
Fe       0.29945006      -0.71471706       2.73187531
Fe       2.57783306      -0.49282706       1.17920031
Fe      -0.83747794       1.54338794       2.63878631
Fe       0.37566106       0.70962694       0.76470431
Fe       2.45369906       1.59167794       0.01734431
Fe       0.20688606      -2.42701306      -1.77723869
Fe       1.74775706       1.28197894       2.55144031
Fe      -0.26725294      -0.38699206      -3.04460569
16
Properties=species:S:1:pos:R:3 isomer=D61 dft_rel_eV=2.8223568180110306 dft_mult=53 record_id=d5067e657d3c4be875cb n_records=3 pbc="F F F"
Fe      -1.00609794      -0.77080900      -0.53366869
Fe      -1.67066794       1.76976500       0.18184031
Fe       0.76503206      -2.01199000       0.62845231
Fe      -2.21821294       0.74228400      -1.97178769
Fe       1.54475206      -0.44975900      -1.15801869
Fe      -2.10665194      -1.73319100      -2.29919669
Fe       0.14757106       1.45935100      -1.57711869
Fe      -2.01109594      -0.12467400       1.58857531
Fe       0.29719106      -0.68229600       2.70492731
Fe       2.59299806      -0.50816000       1.17440231
Fe      -0.83487194       1.56193000       2.67825031
Fe       0.37415606       0.70578700       0.78230131
Fe       2.41349506       1.59885700       0.06214631
Fe       0.27084506      -2.41287000      -1.79564869
Fe       1.72313106       1.26683400       2.59306031
Fe      -0.28157294      -0.41105900      -3.05851669
