16
Properties=species:S:1:pos:R:3 isomer=D00 dft_rel_eV=0.0 dft_mult=53 record_id=55665f3dee9f21ba5ae7 n_records=62 energy=-110.22629116105242 pbc="F F F"
Fe       0.67651764      -2.59372791       0.19415538
Fe      -2.03380564       1.89170966      -0.38171322
Fe       2.58672340       1.01924574       0.37090101
Fe      -2.64729451      -0.24990777       0.89268072
Fe       0.45732070       2.41029950      -0.00972560
Fe      -1.57946909      -2.16760664      -0.17608207
Fe      -2.24886121      -0.33375130      -1.64132836
Fe       2.37085532      -1.20771961      -0.88604709
Fe       0.10107641      -1.27551476      -2.09322726
Fe      -0.57741716       1.33466050      -2.26030933
Fe       1.67944575       0.90631903      -1.89276608
Fe       0.00009754       0.00004871      -0.00024332
Fe       1.02922290       1.04905208       2.25031758
Fe      -0.55815996      -1.13416973       2.10204142
Fe      -1.22805994       1.47176144       1.88373036
Fe       1.97180787      -1.12069889       1.64761598
16
Properties=species:S:1:pos:R:3 isomer=D04 dft_rel_eV=0.2635395546676591 dft_mult=51 record_id=5175ea25d828465b602c n_records=60 energy=-109.99009661236353 pbc="F F F"
Fe       0.03619204      -0.01180863       0.06613087
Fe      -0.14695366      -2.46242499       0.78680213
Fe       2.13860630      -0.01026286       1.65132301
Fe      -1.14263522       0.37793584      -2.08558136
Fe      -2.67072739       0.68132094      -0.00909376
Fe       2.68138592       0.81147301      -0.56262655
Fe      -2.12961099      -1.59537640      -0.71620316
Fe       2.00000721      -1.63576796      -0.25648567
Fe       0.81670798       2.02910830      -1.68254139
Fe      -1.04967439       1.32502238       1.96442366
Fe      -0.01962209      -2.05868758      -1.70340712
Fe       0.17070578      -0.76964605       2.61430868
Fe       1.35614486      -0.24470922      -2.39178085
Fe      -2.05580251      -1.01805311       1.70393896
Fe      -1.08296011       2.42325659      -0.30824538
Fe       1.09823642       2.15861967       0.92903796
16
Properties=species:S:1:pos:R:3 isomer=D60 dft_rel_eV=2.675725542125292 dft_mult=53 record_id=9e0ed22ce39cc0500f0b n_records=2 energy=-109.5190123714088 pbc="F F F"
Fe      -2.20673086      -1.24240209      -0.40271562
Fe      -2.37494796       1.12369776       0.43059148
Fe       0.47628706      -2.15409236       1.10088426
Fe      -1.61649377       1.19292104      -1.83075447
Fe       2.00163343      -1.35051287      -1.05742947
Fe      -1.44653011      -1.03011473      -2.76951315
Fe      -0.03508672       2.39908277      -0.38214248
Fe      -1.55451976      -0.79158632       1.91152248
Fe       0.69203669      -0.23393932       2.75185506
Fe       2.52011628      -0.51947973       1.15220388
Fe      -0.74750769       1.71740906       2.07682222
Fe       0.00218068      -0.00766185       0.02124716
Fe       2.19133429       1.17929909      -0.80512671
Fe      -0.14677995      -2.37930599      -1.25375728
Fe       1.60992865       1.81605818       1.48798843
Fe       0.63507823       0.28062581      -2.43167565
16
Properties=species:S:1:pos:R:3 isomer=D50 dft_rel_eV=1.7706095281755552 dft_mult=51 record_id=77f48eae08366c2797af n_records=59 energy=-109.5179215947694 pbc="F F F"
Fe      -2.26758011       1.38564528       0.09514004
Fe       1.96119664       1.55431230       0.41556617
Fe      -2.36238192      -0.65361669       1.35204779
Fe       2.48570503      -0.75133498      -0.48023743
Fe      -0.93879371       1.21279481      -2.03892626
Fe      -0.46078420       0.97969338       2.18673056
Fe       0.21213185      -1.69387471      -1.76099307
Fe      -0.00580045      -0.01600720       0.00493613
Fe       1.73915175      -0.33848067       1.92255597
Fe      -2.13602038      -0.76745441      -1.26595937
Fe       1.40576300       0.38052771      -2.28348183
Fe      -0.33918920      -1.56704618       2.35099809
Fe       1.17518524      -2.49377652       0.54935131
Fe      -1.23142501      -2.56189450       0.15082071
Fe       1.04365869       2.66396688      -1.60890230
Fe      -0.28081983       2.66654839       0.41026752
16
Properties=species:S:1:pos:R:3 isomer=D61 dft_rel_eV=2.8223568180110306 dft_mult=53 record_id=d5067e657d3c4be875cb n_records=3 energy=-109.51774898019046 pbc="F F F"
Fe      -2.21250530      -1.21197094      -0.40706051
Fe      -2.35974421       1.16665320       0.39756182
Fe       0.43069134      -2.14847152       1.12343800
Fe      -1.57586632       1.19113071      -1.85880767
Fe       2.00550385      -1.39419472      -1.01090276
Fe      -1.46685149      -1.04342482      -2.78228289
Fe      -0.00042948       2.39934862      -0.40609595
Fe      -1.58346884      -0.74677555       1.90748540
Fe       0.66417608      -0.21446716       2.76167281
Fe       2.50704838      -0.53697452       1.18934698
Fe      -0.73893996       1.75354932       2.05803171
Fe       0.00764850      -0.00094238       0.02658402
Fe       2.20717899       1.13692936      -0.80464327
Fe      -0.16302795      -2.37162929      -1.24536676
Fe       1.62348256       1.81110263       1.48058962
Fe       0.65510299       0.21013649      -2.42955084
16
Properties=species:S:1:pos:R:3 isomer=D16 dft_rel_eV=0.739259893540293 dft_mult=51 record_id=51d23dc44aa8e59cb506 n_records=18 energy=-109.51765333753266 pbc="F F F"
Fe      -0.00041232      -0.02436513       0.00007169
Fe      -1.28915858      -2.53922810       0.04541395
Fe      -0.14405183      -1.94498525      -2.02277861
Fe       2.07733768      -0.67420870      -1.41633529
Fe       2.11854713      -0.43119765       1.14617757
Fe       1.28711056      -2.54062132      -0.02971491
Fe       0.14248803      -1.93215864       2.03426820
Fe      -2.07822224      -0.66248480       1.41935507
Fe      -2.11908504      -0.43773365      -1.14491862
Fe       0.09103658       0.36974286      -2.62612581
Fe      -1.32600530       1.86956156      -1.42707454
Fe      -1.56926277       1.69327336       1.05526261
Fe       0.00203902       3.30756647      -0.01129915
Fe      -0.09091583       0.38528201       2.62461168
Fe       1.32617630       1.87803771       1.41692881
Fe       1.57237856       1.68351929      -1.06384261
16
Properties=species:S:1:pos:R:3 isomer=D24 dft_rel_eV=0.8777223112992942 dft_mult=49 record_id=a09438f828c931e233b3 n_records=16 energy=-109.51680108953644 pbc="F F F"
Fe       0.00001379      -0.01162271       0.00004354
Fe      -1.28556416      -2.53651799       0.05315030
Fe      -0.16429869      -1.92354329      -2.02092532
Fe       2.07840789      -0.69151128      -1.43514059
Fe       2.12688927      -0.42239125       1.12457010
Fe       1.28307127      -2.53806447      -0.03751622
Fe       0.16241740      -1.91115109       2.03276258
Fe      -2.07908551      -0.68068393       1.43939492
Fe      -2.12727359      -0.42713165      -1.12193786
Fe       0.10601766       0.39219186      -2.61476825
Fe      -1.34618876       1.87268939      -1.45101369
Fe      -1.61980099       1.67217109       1.02570497
Fe       0.00156370       3.25252220      -0.00981774
Fe      -0.10566754       0.40852987       2.61221620
Fe       1.34828675       1.88016887       1.43939999
Fe       1.62121160       1.66434438      -1.03612282
