176
Lattice="19.68 0.0 0.0 0.0 21.304224933097192 0.0 0.0 0.0 21.0" Properties=species:S:1:pos:R:3:move_mask:L:1 name=graphene n_fixed_layers=0 isomer=B0 support=graphene energy=-1597.8664978003508 pbc="T T T"
C        0.00000000       0.00000000       1.00000000  F
C        1.23136267       0.71069372       1.05001633  T
C        1.23108913       2.12964932       1.15738062  T
C       -0.00088768       2.83986077       1.19591004  T
C       -0.00208226       4.26041604       1.26364432  T
C        1.23123207       4.97011370       1.30726425  T
C        1.23209326       6.39165559       1.32343158  T
C       -0.00347934       7.10050496       1.28383807  T
C       -0.00319127       8.52052640       1.25158872  T
C        1.23345629       9.22874276       1.26673788  T
C        1.23404397      10.64819401       1.21355249  T
C       -0.00087056      11.35469457       1.15028810  T
C        0.00053116      12.77386761       1.10201797  T
C        1.23461938      13.48338823       1.09895890  T
C        1.23382873      14.90325908       1.05011218  T
C        0.00103461      15.61238555       1.03398474  T
C        0.00048487      17.03372703       1.01409285  T
C        1.23117556      17.74582669       0.98498153  T
C        1.23000359      19.16849548       0.97221943  T
C       -0.00068281      19.88076830       0.99160774  T
C        2.46162303      -0.00274976       1.02534325  T
C        3.69262528       0.70572468       1.08225728  T
C        3.69298395       2.12566808       1.17566500  T
C        2.46279689       2.83823358       1.21740653  T
C        2.46413949       4.25914824       1.28624577  T
C        3.69796271       4.96965030       1.27526747  T
C        3.70227427       6.39189016       1.26862075  T
C        2.46843125       7.10107123       1.30934002  T
C        2.47048006       8.52141962       1.27705015  T
C        3.70555034       9.22839893       1.18339779  T
C        3.70537849      10.64722859       1.12212556  T
C        2.47012050      11.35557455       1.16389387  T
C        2.46908597      12.77435088       1.10073193  T
C        3.70113581      13.48120130       1.00422626  T
C        3.69786209      14.90158942       0.96186572  T
C        2.46546449      15.61279233       0.99903543  T
C        2.46298659      17.03425804       0.96712815  T
C        3.69338271      17.74470940       0.92834646  T
C        3.69191194      19.16694152       0.94860207  T
C        2.46104444      19.87958683       0.97008717  T
C        4.92263122      -0.00727754       1.04574520  T
C        6.15349753       0.70184735       1.08421044  T
C        6.15404973       2.12356011       1.14443305  T
C        4.92475885       2.83604205       1.19557967  T
C        4.92811882       4.25817897       1.22064536  T
C        6.15954565       4.96852101       1.12313587  T
C        6.16180220       6.38701644       1.03426680  T
C        4.93396778       7.10011199       1.14686844  T
C        4.93610908       8.51899690       1.08252963  T
C        6.15409112       9.22241925       0.84423444  T
C        6.15724109      10.63760438       0.79016460  T
C        4.93476542      11.35133045       0.96262454  T
C        4.93343133      12.77030997       0.92108777  T
C        6.16237017      13.47617994       0.77086837  T
C        6.15831912      14.89799386       0.78678320  T
C        4.92742940      15.61020844       0.87597079  T
C        4.92444555      17.03190018       0.88295553  T
C        6.15508445      17.74139197       0.86231059  T
C        6.15324864      19.16288913       0.92670659  T
C        4.92301908      19.87622802       0.96910792  T
C        7.38319520      -0.01106994       1.04587613  T
C        8.61318322       0.69922948       1.07958681  T
C        8.61284771       2.12266790       1.09125101  T
C        7.38431922       2.83546384       1.11456167  T
C        7.38646151       4.25778918       1.06188993  T
C        8.61155746       4.96443400       0.89581130  T
C        8.59988863       6.36947942       0.69570278  T
C        7.37908132       7.08073651       0.78256698  T
C        7.36435772       8.49840835       0.63007887  T
C        8.57391173       9.19558733       0.27180726  T
C        8.58148259      10.63263057       0.25718455  T
C        7.37040401      11.34508655       0.54594307  T
C        7.38419622      12.76798661       0.58918083  T
C        8.61001055      13.47936701       0.45632454  T
C        8.61338752      14.89752309       0.57885684  T
C        7.38614381      15.60765958       0.71576668  T
C        7.38477808      17.02882941       0.79274334  T
C        8.61465451      17.73837038       0.81873588  T
C        8.61297715      19.15834391       0.92472845  T
C        7.38352895      19.87195038       0.96440211  T
C        9.84201227      -0.01458479       1.06430929  T
C       11.07026652       0.69796637       1.10183548  T
C       11.06999264       2.12219601       1.08129048  T
C        9.84198973       2.83482655       1.04460563  T
C        9.84248720       4.25243547       0.91219667  T
C       11.06987884       4.95198354       0.77942512  T
C       11.07006573       6.35141903       0.51140455  T
C        9.82991531       7.05838780       0.42765447  T
C        9.81490138       8.46798365       0.13853451  T
C       11.06549029       9.18024187      -0.01682989  T
C       11.07012154      10.62754130      -0.06939720  T
C        9.82825253      11.35085519       0.10746385  T
C        9.83906112      12.78504016       0.24468163  T
C       11.06916160      13.49407272       0.27480437  T
C       11.07336347      14.90109041       0.49413314  T
C        9.84355535      15.60849384       0.59888219  T
C        9.84366876      17.02619335       0.75169157  T
C       11.07213384      17.73573727       0.83962504  T
C       11.07123872      19.15495743       0.96674458  T
C        9.84213886      19.86730263       0.99132243  T
C       12.29883601      -0.01440050       1.11463752  T
C       13.52708273       0.69965083       1.15173881  T
C       13.52651795       2.12328019       1.13395269  T
C       12.29789480       2.83538367       1.06393629  T
C       12.29754387       4.25177514       0.91772849  T
C       13.52735195       4.96311379       0.89567765  T
C       13.53455825       6.37007472       0.69549028  T
C       12.30553920       7.05270864       0.42695390  T
C       12.30886411       8.47123509       0.19488718  T
C       13.55101701       9.20247337       0.32792365  T
C       13.56381023      10.63558614       0.20900192  T
C       12.31935622      11.35432562       0.03183359  T
C       12.31359374      12.79364743       0.19249755  T
C       13.54539578      13.49023137       0.43154176  T
C       13.53459828      14.90447983       0.61717467  T
C       12.30386218      15.60886367       0.63128921  T
C       12.30172208      17.02474383       0.80226140  T
C       13.52812900      17.73610325       0.92042444  T
C       13.52815356      19.15613606       1.03489478  T
C       12.29886733      19.86694355       1.04938446  T
C       14.75706817      -0.01185184       1.15062739  T
C       15.98690390       0.70229403       1.16063730  T
C       15.98589187       2.12521961       1.17835241  T
C       14.75493059       2.83659739       1.14371827  T
C       14.75247402       4.25795912       1.06596505  T
C       15.98077194       4.96972999       1.10553871  T
C       15.97865364       6.38791105       1.01323074  T
C       14.75697771       7.08331575       0.78632803  T
C       14.77036619       8.50177635       0.64295853  T
C       15.99225092       9.22388317       0.80864486  T
C       15.99687596      10.63494589       0.73311194  T
C       14.78475056      11.35018273       0.46686907  T
C       14.77518318      12.77584804       0.54201041  T
C       15.99391797      13.47963846       0.76868883  T
C       15.98970289      14.89749570       0.84318586  T
C       14.75797314      15.60795827       0.79391015  T
C       14.75776524      17.02678886       0.91268177  T
C       15.98690600      17.73877265       1.00037456  T
C       15.98786383      19.15989145       1.07118430  T
C       14.75706619      19.86939703       1.09782432  T
C       17.21834667      -0.00706162       1.11447013  T
C       18.44873258       0.70707104       1.08624855  T
C       18.44835029       2.12785018       1.16130226  T
C       17.21616000       2.83790691       1.18977847  T
C       17.21287288       4.26000060       1.19430813  T
C       18.44404368       4.97065265       1.23916894  T
C       18.44130937       6.39213760       1.22771500  T
C       17.20938742       7.09924123       1.10454878  T
C       17.20957372       8.51971216       1.03533963  T
C       18.44216380       9.22705669       1.14338803  T
C       18.44414326      10.64477137       1.08934608  T
C       17.21507250      11.34745867       0.92019964  T
C       17.21744491      12.76961848       0.90848457  T
C       18.44737250      13.48016979       1.02166262  T
C       18.44889197      14.90051594       1.01183829  T
C       17.21797040      15.60858237       0.95635380  T
C       17.21818044      17.02986621       0.99661856  T
C       18.44871839      17.74335762       1.01969380  T
C       18.44941756      19.16616286       1.02847489  T
C       17.21824073      19.87461652       1.07723848  T
Fe      11.64738966       7.25798878       4.08774338  T
Fe       9.43397830      11.85675480       3.71009527  T
Fe      13.80553830      10.78162882       4.21978186  T
Fe       8.51769796       9.85067554       4.97618391  T
Fe      11.81251660      12.29573326       4.23838781  T
Fe       9.35072802       7.85601764       3.92526740  T
Fe       8.51589685       9.82164253       2.57740954  T
Fe      13.23805481       8.93316985       2.72184146  T
Fe      10.89710229       8.46647029       2.19474441  T
Fe      10.89774284      10.87788209       2.12383795  T
Fe      13.06594636      11.74681643       2.30578994  T
Fe      11.16166786       9.83965506       4.03257015  T
Fe      12.41385882      10.68200241       6.33805198  T
Fe      10.62967918       8.69835018       6.18920602  T
Fe      10.12950083      11.32729258       6.10005666  T
Fe      13.20587567       8.59233242       5.30344552  T
176
Lattice="19.68 0.0 0.0 0.0 21.304224933097192 0.0 0.0 0.0 21.0" Properties=species:S:1:pos:R:3:move_mask:L:1 name=graphene n_fixed_layers=0 isomer=B1 support=graphene energy=-1597.8407792710095 pbc="T T T"
C        0.00000000       0.00000000       1.00000000  F
C        1.23254151       0.71352794       1.03736242  T
C        1.23505644       2.13533597       1.09333765  T
C        0.00455196       2.84622709       1.12001764  T
C        0.00598410       4.26660661       1.19955066  T
C        1.23734030       4.97821237       1.23719780  T
C        1.23932513       6.39873667       1.29112687  T
C        0.00675949       7.10738873       1.31945096  T
C        0.00599161       8.52739778       1.35537541  T
C        1.24031326       9.23708284       1.34728926  T
C        1.24027994      10.65733123       1.35521404  T
C        0.00515631      11.36483544       1.38467468  T
C        0.00381196      12.78522421       1.38109390  T
C        1.23723124      13.49467309       1.33815758  T
C        1.23540538      14.91480394       1.30301662  T
C        0.00239263      15.62403304       1.31103535  T
C        0.00163946      17.04388630       1.24339501  T
C        1.23224950      17.75479608       1.18452295  T
C        1.23225994      19.17481646       1.10891834  T
C        0.00020778      19.88345824       1.06720256  T
C        2.46411815       0.00446183       1.08617154  T
C        3.69500282       0.71551829       1.15709890  T
C        3.69665937       2.13718745       1.18018191  T
C        2.46612849       2.84723561       1.15706103  T
C        2.46828012       4.26868534       1.21018543  T
C        3.70014333       4.98101231       1.22215054  T
C        3.70421901       6.40312313       1.22468059  T
C        2.47215245       7.11030106       1.27628874  T
C        2.47366999       8.53047782       1.28375969  T
C        3.70449784       9.24131569       1.17690773  T
C        3.70322942      10.66004629       1.15506454  T
C        2.47287262      11.36674053       1.27839529  T
C        2.47038994      12.78640742       1.27156684  T
C        3.69990301      13.49517992       1.16163199  T
C        3.69776728      14.91493644       1.17576587  T
C        2.46577943      15.62464547       1.23461069  T
C        2.46414432      17.04487936       1.19559101  T
C        3.69491858      17.75571156       1.17476267  T
C        3.69460082      19.17703712       1.15917696  T
C        2.46371078      19.88694244       1.10598168  T
C        4.92493981       0.00546643       1.22060926  T
C        6.15469859       0.71720088       1.29008781  T
C        6.15701642       2.13977771       1.27959144  T
C        4.92731634       2.84928639       1.23069307  T
C        4.92983800       4.27085614       1.21645614  T
C        6.16099636       4.98360414       1.17730068  T
C        6.16439465       6.40306667       1.08028837  T
C        4.93392171       7.11488032       1.13296391  T
C        4.93334380       8.53554915       1.06505132  T
C        6.14927712       9.24429555       0.85464683  T
C        6.14292072      10.65868042       0.77512046  T
C        4.92678316      11.36802188       0.97551887  T
C        4.92620713      12.78884443       1.00206718  T
C        6.14778420      13.50230288       0.87363591  T
C        6.15500639      14.91586300       0.99714835  T
C        4.92727580      15.62434883       1.12113096  T
C        4.92590965      17.04496340       1.16735137  T
C        6.15565875      17.75459089       1.19676393  T
C        6.15480704      19.17591089       1.24903193  T
C        4.92502082      19.88762925       1.20902772  T
C        7.38384684       0.00580443       1.34561105  T
C        8.61376679       0.71821510       1.38147794  T
C        8.61555794       2.14157467       1.33996932  T
C        7.38715286       2.85291852       1.28940771  T
C        7.38956428       4.27434354       1.20182932  T
C        8.61777930       4.98525303       1.09917246  T
C        8.61210381       6.39293413       0.89237948  T
C        7.38904534       7.10204576       0.90177091  T
C        7.37610588       8.52133250       0.73648864  T
C        8.60515063       9.22525940       0.47703921  T
C        8.59537583      10.66489026       0.35163467  T
C        7.35982637      11.37920905       0.54315729  T
C        7.36683225      12.80161798       0.63489558  T
C        8.60219824      13.52027297       0.59449629  T
C        8.61368147      14.93063224       0.84982574  T
C        7.38658737      15.62738069       0.99861730  T
C        7.38555974      17.04286206       1.15383543  T
C        8.61287406      17.75123671       1.22865986  T
C        8.61239951      19.17301325       1.32580808  T
C        7.38379077      19.88665112       1.31749999  T
C        9.84263705       0.00437142       1.40337173  T
C       11.07258217       0.71667125       1.39295109  T
C       11.07326253       2.14011377       1.33935263  T
C        9.84537360       2.85393476       1.30290889  T
C        9.84742171       4.27286427       1.16867386  T
C       11.07673894       4.97548911       1.06910561  T
C       11.08266680       6.38165986       0.83439555  T
C        9.84741362       7.08516391       0.69292829  T
C        9.84609711       8.49919665       0.43243719  T
C       11.09749275       9.21697903       0.33596987  T
C       11.09543203      10.65989150       0.24246878  T
C        9.84217672      11.38524469       0.22452154  T
C        9.84074264      12.82073546       0.38725203  T
C       11.08538870      13.52747203       0.57604668  T
C       11.07536062      14.93149492       0.88499970  T
C        9.83825704      15.63139846       0.96839815  T
C        9.84056677      17.03891439       1.17480049  T
C       11.06988196      17.74855822       1.27495646  T
C       11.07036645      19.17022646       1.36334859  T
C        9.84143670      19.88422365       1.38116561  T
C       12.30160568       0.00302445       1.38127230  T
C       13.53161327       0.71433566       1.32822706  T
C       13.53200565       2.13635287       1.29140739  T
C       12.30266319       2.84941243       1.28045025  T
C       12.30365976       4.26822298       1.16443843  T
C       13.53559377       4.97781698       1.12459608  T
C       13.54132951       6.39188252       0.98734127  T
C       12.31775485       7.09060325       0.78107941  T
C       12.33750960       8.50618001       0.56340830  T
C       13.55968067       9.23200960       0.71543032  T
C       13.55973863      10.64788581       0.69800586  T
C       12.33061337      11.37028826       0.49698452  T
C       12.32589434      12.80550578       0.62806077  T
C       13.53921805      13.50057691       0.92492678  T
C       13.52847389      14.91195199       1.09172824  T
C       12.30288011      15.62264179       1.08505017  T
C       12.29891098      17.03708342       1.24267508  T
C       13.52794855      17.74967216       1.30468974  T
C       13.52984371      19.17188153       1.33982387  T
C       12.30033733      19.88345302       1.37568777  T
C       14.76108666       0.00212834       1.28099087  T
C       15.99106446       0.71247161       1.20755689  T
C       15.99235846       2.13421596       1.20795267  T
C       14.76270101       2.84554791       1.23942663  T
C       14.76418976       4.26668653       1.19695155  T
C       15.99395193       4.97725330       1.20267013  T
C       15.99301796       6.39802452       1.18263062  T
C       14.76515462       7.10561653       1.05158120  T
C       14.76811436       8.52672092       0.97018176  T
C       15.99065993       9.23680232       1.13208521  T
C       15.98831464      10.65580107       1.13645426  T
C       14.76536628      11.36279496       0.96141985  T
C       14.76062387      12.78157462       1.04650522  T
C       15.98333492      13.48821047       1.23014232  T
C       15.98567689      14.90946528       1.27723932  T
C       14.75607257      15.61912647       1.23623333  T
C       14.75786067      17.04013847       1.28795905  T
C       15.98892347      17.75178485       1.28324396  T
C       15.99018053      19.17314879       1.25294512  T
C       14.76023763      19.88400179       1.29715072  T
C       17.22013720       0.00137743       1.13648977  T
C       18.45037455       0.71217995       1.06043337  T
C       18.45297472       2.13427902       1.10649419  T
C       17.22342768       2.84487147       1.17374976  T
C       17.22447370       4.26602802       1.20972495  T
C       18.45514244       4.97676572       1.23321264  T
C       18.45489509       6.39726298       1.28435623  T
C       17.22293794       7.10763849       1.25200228  T
C       17.21970627       8.52793312       1.26188955  T
C       18.45136220       9.23565614       1.34339380  T
C       18.45066103      10.65538614       1.35980199  T
C       17.21672816      11.36290017       1.29008841  T
C       17.21584433      12.78188781       1.31367087  T
C       18.44929158      13.49287184       1.36946968  T
C       18.45017815      14.91330885       1.34682462  T
C       17.21782238      15.62118756       1.32090433  T
C       17.21947786      17.04193971       1.28493925  T
C       18.45005664      17.75323794       1.23052705  T
C       18.45000524      19.17293541       1.14777116  T
C       17.21959376      19.88391467       1.17193457  T
Fe      10.09013578      10.90638320       4.30803609  T
Fe       9.63362435       8.16918237       4.45239096  T
Fe      11.78947313      11.09136552       6.46912036  T
Fe       9.11523912      11.84824178       2.40196150  T
Fe       7.58463259      11.69528246       4.21767949  T
Fe      12.71010799      11.46932967       4.13139980  T
Fe       8.38209844       9.55548497       2.89152693  T
Fe      11.92425107       9.16332064       4.59636748  T
Fe      11.37703609      13.22403716       2.91056430  T
Fe       9.23216191      11.90619650       6.43137159  T
Fe      10.93995892       8.35281820       2.60304719  T
Fe      10.12599642       9.38952254       6.61714207  T
Fe      11.24140094      10.67006121       2.45257348  T
Fe       7.95749148       9.72372076       5.51151152  T
Fe       9.18899042      13.44468027       4.18372674  T
Fe      11.28970894      13.20707500       5.33234687  T
176
Lattice="19.68 0.0 0.0 0.0 21.304224933097192 0.0 0.0 0.0 21.0" Properties=species:S:1:pos:R:3:move_mask:L:1 name=graphene n_fixed_layers=0 isomer=B2 support=graphene energy=-1597.8157744382004 pbc="T T T"
C        0.00000000       0.00000000       1.00000000  F
C        1.23005062       0.71234924       1.03640571  T
C        1.23076452       2.13409516       1.07778904  T
C        0.00049257       2.84577101       1.10130441  T
C        0.00124424       4.26673650       1.15239584  T
C        1.23320136       4.97792219       1.13656303  T
C        1.23594962       6.39878399       1.13696986  T
C        0.00464649       7.10759308       1.20300914  T
C        0.00651136       8.52715837       1.20219273  T
C        1.23925194       9.23442350       1.10761315  T
C        1.23937398      10.65332108       1.09629973  T
C        0.00729734      11.36318845       1.17825878  T
C        0.00572101      12.78332643       1.17243430  T
C        1.23753357      13.49137606       1.10400846  T
C        1.23569527      14.91172967       1.10729968  T
C        0.00400641      15.62247524       1.15383432  T
C        0.00237838      17.04275207       1.12450731  T
C        1.23319972      17.75240434       1.08470674  T
C        1.23170666      19.17331971       1.05575348  T
C       -0.00031768      19.88347017       1.03533337  T
C        2.46139685       0.00238493       1.07722305  T
C        3.69183933       0.71306255       1.13487181  T
C        3.69268511       2.13565233       1.13192558  T
C        2.46185432       2.84607191       1.10842065  T
C        2.46375646       4.26810500       1.10877784  T
C        3.69523502       4.98010992       1.05878121  T
C        3.69782624       6.39956720       0.97961297  T
C        2.46692160       7.10790898       1.03807307  T
C        2.46894909       8.52730759       0.99563810  T
C        3.69478992       9.23445281       0.81523998  T
C        3.68869264      10.65033863       0.77934158  T
C        2.46854320      11.35960861       0.96340815  T
C        2.46716005      12.78161752       0.98683901  T
C        3.69135044      13.49259321       0.86818829  T
C        3.69512903      14.91014415       0.94941606  T
C        2.46593073      15.62052738       1.05180457  T
C        2.46460929      17.04162477       1.07235958  T
C        3.69512255      17.75126935       1.08099035  T
C        3.69287001      19.17263666       1.11339468  T
C        2.46220062      19.88466618       1.07578749  T
C        4.92167546       0.00083592       1.18372499  T
C        6.15088280       0.71313424       1.22757424  T
C        6.15199365       2.13637449       1.18944460  T
C        4.92315930       2.84797311       1.13904854  T
C        4.92467812       4.26953206       1.06455040  T
C        6.15349853       4.98012583       0.97424949  T
C        6.15011573       6.39225739       0.79883206  T
C        4.92557941       7.10562882       0.81559507  T
C        4.92216888       8.52319291       0.66850567  T
C        6.13334131       9.22038723       0.39722956  T
C        6.11979472      10.64491508       0.30302139  T
C        4.90521912      11.36347829       0.56176250  T
C        4.90914063      12.78736492       0.64205020  T
C        6.13591910      13.50862081       0.53065687  T
C        6.15369156      14.92029887       0.75701727  T
C        4.92746991      15.62089082       0.91898421  T
C        4.92600478      17.03912305       1.04087695  T
C        6.15488681      17.74693118       1.09445411  T
C        6.15239146      19.16844928       1.18424167  T
C        4.92283588      19.88210595       1.16757362  T
C        7.37969018       0.00015037       1.26609031  T
C        8.60809883       0.71397596       1.28373947  T
C        8.60910682       2.13813686       1.23018939  T
C        7.38136871       2.84938958       1.16605306  T
C        7.38317412       4.26809576       1.03381888  T
C        8.61141490       4.97398665       0.94518451  T
C        8.61092446       6.37952198       0.70465839  T
C        7.37799968       7.08921544       0.60213830  T
C        7.36217939       8.49715030       0.32647985  T
C        8.61185961       9.20904853       0.13628121  T
C        8.61265608      10.65037698      -0.00897750  T
C        7.36182805      11.37037986       0.11011385  T
C        7.36600059      12.80926454       0.27247843  T
C        8.61474716      13.51995547       0.38074293  T
C        8.61633719      14.92060348       0.70281396  T
C        7.37940839      15.62246527       0.83367015  T
C        7.38313561      17.03300555       1.02580579  T
C        8.61179589      17.74377269       1.11165042  T
C        8.60908713      19.16479243       1.22650275  T
C        7.38030414      19.87993544       1.24052633  T
C        9.83647543      -0.00010105       1.30187246  T
C       11.06580853       0.71401821       1.29746009  T
C       11.06616763       2.13810803       1.25857864  T
C        9.83756798       2.85117139       1.20189564  T
C        9.83820556       4.27020667       1.06842281  T
C       11.06919989       4.98257447       1.03395789  T
C       11.07784766       6.39229646       0.84341560  T
C        9.84910163       7.08125238       0.60036083  T
C        9.85855167       8.49407747       0.32084563  T
C       11.09758738       9.22255999       0.42583925  T
C       11.11325960      10.65726611       0.25593875  T
C        9.86698460      11.37552641       0.08797451  T
C        9.86627923      12.81580610       0.23057137  T
C       11.09635859      13.51587265       0.46997858  T
C       11.07913519      14.93240222       0.72508746  T
C        9.85157555      15.62750737       0.81777546  T
C        9.84333868      17.03453205       1.03721439  T
C       11.06924554      17.74589040       1.13906731  T
C       11.06736570      19.16808590       1.24220538  T
C        9.83729986      19.87920273       1.27043687  T
C       12.29619510       0.00175667       1.28521934  T
C       13.52673618       0.71380725       1.25958817  T
C       13.52597231       2.13706644       1.24565371  T
C       12.29594852       2.85031065       1.23758367  T
C       12.29577799       4.27255075       1.16058963  T
C       13.52419773       4.98388033       1.17039070  T
C       13.52111445       6.40455410       1.09433356  T
C       12.29765667       7.10475540       0.90638433  T
C       12.30914118       8.52576077       0.76006893  T
C       13.53814716       9.24314958       0.87287971  T
C       13.55016214      10.65282901       0.76678300  T
C       12.33405458      11.37365992       0.49389134  T
C       12.32999677      12.80015490       0.56763188  T
C       13.54488540      13.50237199       0.84236968  T
C       13.53171493      14.91246955       0.97318061  T
C       12.30009450      15.62319325       0.93544919  T
C       12.29827815      17.03739546       1.10654813  T
C       13.52659931      17.74922265       1.19778953  T
C       13.52697855      19.17137707       1.24489354  T
C       12.29625835      19.88215947       1.26891473  T
C       14.75743074       0.00229328       1.22481966  T
C       15.98731611       0.71404656       1.17255078  T
C       15.98716682       2.13619825       1.18330714  T
C       14.75641288       2.84843481       1.21805496  T
C       14.75504624       4.27088109       1.21726762  T
C       15.98612356       4.98035358       1.23051997  T
C       15.98298245       6.40240937       1.23780088  T
C       14.75177705       7.11434210       1.16067795  T
C       14.75305967       8.53486068       1.09216957  T
C       15.98387870       9.23999505       1.18111602  T
C       15.98575047      10.65733685       1.13613675  T
C       14.76060807      11.36516950       0.96543287  T
C       14.76015279      12.78708922       0.98500142  T
C       15.98735833      13.49322588       1.13399945  T
C       15.98748738      14.91218559       1.16717128  T
C       14.75685330      15.62057769       1.13103318  T
C       14.75745346      17.04059587       1.19562517  T
C       15.98863003      17.75236694       1.21076632  T
C       15.98855723      19.17390582       1.19862449  T
C       14.75744884      19.88400002       1.22976647  T
C       17.21787197       0.00315742       1.11442146  T
C       18.44846718       0.71337425       1.05354781  T
C       18.44895251       2.13508959       1.09772718  T
C       17.21846716       2.84651950       1.16035363  T
C       17.21803703       4.26795352       1.20544674  T
C       18.45030725       4.97761684       1.20425577  T
C       18.45089276       6.39851340       1.24023988  T
C       17.21738100       7.10935904       1.26004742  T
C       17.21751845       8.52941712       1.25331346  T
C       18.45280834       9.23590939       1.24231085  T
C       18.45372146      10.65562518       1.22563804  T
C       17.21898885      11.36418503       1.20497889  T
C       17.21922900      12.78360407       1.19449790  T
C       18.45250669      13.49261831       1.20150199  T
C       18.45254784      14.91300916       1.19548703  T
C       17.22046677      15.62233678       1.20124026  T
C       17.22009156      17.04262475       1.19134420  T
C       18.45064566      17.75322129       1.14207526  T
C       18.44892343      19.17388534       1.09616251  T
C       17.21834033      19.88536100       1.13497011  T
Fe       7.13643982      12.16398932       4.62071628  T
Fe       8.67500708      13.43131397       2.93198223  T
Fe       8.62199490      10.71068722       6.26417008  T
Fe       8.74628171      10.74190400       2.15313212  T
Fe       9.19320520       8.69082296       4.64511549  T
Fe       6.68083679      11.86621288       2.41605406  T
Fe      10.78806587      11.94432862       2.26521306  T
Fe       8.94422898      13.36111635       5.63264709  T
Fe      10.93221800      12.08567624       6.31924549  T
Fe      11.10014499       9.72030383       5.66062466  T
Fe      10.93309221      13.50253294       4.06243111  T
Fe       9.61169707      11.28095227       4.04483892  T
Fe      11.05730643       9.40165926       2.96436827  T
Fe       7.23852433       9.87460474       3.93080729  T
Fe      12.20039623      11.37294829       4.08706548  T
Fe       8.70592996       8.39404639       2.45180895  T
176
Lattice="19.68 0.0 0.0 0.0 21.304224933097192 0.0 0.0 0.0 21.0" Properties=species:S:1:pos:R:3:move_mask:L:1 name=graphene n_fixed_layers=0 isomer=B3 support=graphene energy=-1597.7933906778428 pbc="T T T"
C        0.00000000       0.00000000       1.00000000  F
C        1.23939790       0.70201918       1.02478176  T
C        1.24389780       2.12274440       1.02174423  T
C        0.01248887       2.83474440       1.02757461  T
C        0.01410006       4.25554605       1.02966244  T
C        1.24685015       4.96426237       1.02468942  T
C        1.24847385       6.38468388       1.03007055  T
C        0.01656091       7.09497486       1.03692543  T
C        0.01727262       8.51520069       1.05693659  T
C        1.25074797       9.22408762       1.07537343  T
C        1.25306235      10.64371318       1.12176852  T
C        0.01907399      11.35210970       1.14068088  T
C        0.01902493      12.77187917       1.18404253  T
C        1.25281541      13.48021980       1.21385301  T
C        1.25125754      14.90074107       1.24128859  T
C        0.01688382      15.61049807       1.23247028  T
C        0.01536473      17.03231314       1.21367336  T
C        1.24633175      17.74416590       1.20959547  T
C        1.24211751      19.16649241       1.14670830  T
C        0.00965027      19.87892186       1.08141648  T
C        2.47132607      -0.00866976       1.10669934  T
C        3.70357131       0.70170746       1.14490667  T
C        3.70647426       2.12270537       1.09371638  T
C        2.47632358       2.83274459       1.04334939  T
C        2.47790910       4.25360654       1.02972998  T
C        3.70959025       4.96384758       1.01694074  T
C        3.71166019       6.38439711       0.98695953  T
C        2.48128061       7.09455634       1.01609161  T
C        2.48312392       8.51499790       1.02870866  T
C        3.71510862       9.22411854       0.96180593  T
C        3.71887257      10.64629282       0.98958215  T
C        2.48779472      11.35243171       1.10974611  T
C        2.48754687      12.77072402       1.16337848  T
C        3.72161883      13.47712398       1.12330607  T
C        3.71861794      14.89763594       1.18683951  T
C        2.48494124      15.60921546       1.24327395  T
C        2.47970035      17.03151555       1.24354169  T
C        3.71133416      17.74029912       1.24991800  T
C        3.70626609      19.16258736       1.23437196  T
C        2.47450284      19.87469294       1.16302835  T
C        4.93449353      -0.00841935       1.22134207  T
C        6.16588083       0.70383916       1.23295833  T
C        6.16835683       2.12587766       1.16312280  T
C        4.93807865       2.83452506       1.09957549  T
C        4.94041844       4.25460155       1.03544943  T
C        6.17178518       4.96546462       0.97863822  T
C        6.17394283       6.38387233       0.86544313  T
C        4.94193651       7.09414928       0.90353949  T
C        4.93799055       8.51135863       0.84271406  T
C        6.15671663       9.21498626       0.63363050  T
C        6.15230690      10.64268774       0.60080905  T
C        4.94143354      11.35783444       0.85896588  T
C        4.94834324      12.77021490       0.95772677  T
C        6.17058200      13.48869996       0.84107870  T
C        6.17759658      14.90376365       0.97210545  T
C        4.95087983      15.60692963       1.14503063  T
C        4.94481883      17.02768757       1.21746791  T
C        6.17354618      17.73885922       1.20522212  T
C        6.16890900      19.16105262       1.26115573  T
C        4.93666803      19.87330144       1.25588861  T
C        7.39681617      -0.00755282       1.27463449  T
C        8.62685594       0.70556982       1.26928141  T
C        8.62821615       2.12876205       1.19287774  T
C        7.39928502       2.83867716       1.13178374  T
C        7.40178499       4.25821608       1.01339966  T
C        8.62998221       4.97075588       0.92263978  T
C        8.62915655       6.38474906       0.73279613  T
C        7.39818853       7.08546426       0.69832262  T
C        7.38635778       8.49894776       0.51126224  T
C        8.61745428       9.19766987       0.26042356  T
C        8.61138319      10.64033350       0.13921299  T
C        7.37448045      11.35723475       0.37543015  T
C        7.38923804      12.78807785       0.53490855  T
C        8.62443807      13.52046841       0.40170934  T
C        8.62479370      14.93725268       0.63071544  T
C        7.40162631      15.61944803       0.89320987  T
C        7.40247052      17.03088914       1.07620839  T
C        8.63029532      17.74140915       1.10127944  T
C        8.62843189      19.15982219       1.23129888  T
C        7.39828570      19.87281439       1.27075787  T
C        9.85604699      -0.00778286       1.29267693  T
C       11.08471604       0.70588521       1.28386042  T
C       11.08453841       2.12962473       1.20509170  T
C        9.85701553       2.84170595       1.14050022  T
C        9.85771684       4.26105080       0.99583095  T
C       11.08483062       4.97364160       0.92048653  T
C       11.08581198       6.38741831       0.72150522  T
C        9.85810917       7.09198142       0.59134619  T
C        9.85972480       8.49449024       0.32947859  T
C       11.09172845       9.20780948       0.26106366  T
C       11.10340085      10.64039456       0.09336112  T
C        9.85632857      11.36814472       0.02475343  T
C        9.85553615      12.81342139       0.14084835  T
C       11.10679386      13.52698454       0.27190803  T
C       11.08986081      14.93410070       0.58824489  T
C        9.85567922      15.63793563       0.70201212  T
C        9.85770813      17.03693073       0.96780665  T
C       11.08578334      17.73938970       1.08809250  T
C       11.08546081      19.15765897       1.23344806  T
C        9.85683767      19.87162411       1.26816535  T
C       12.31334806      -0.00814194       1.29988266  T
C       13.54175548       0.70585670       1.27077057  T
C       13.54078567       2.12950686       1.20300862  T
C       12.31222655       2.84265682       1.15629626  T
C       12.31137876       4.26232741       1.02428537  T
C       13.54028547       4.97246332       0.98172529  T
C       13.54163394       6.38926798       0.83101419  T
C       12.31684815       7.09650298       0.66457552  T
C       12.32684880       8.50749925       0.47315608  T
C       13.55283901       9.21671035       0.55317946  T
C       13.56954216      10.64265301       0.48026256  T
C       12.34932896      11.36116554       0.22847766  T
C       12.34859221      12.79644354       0.32262814  T
C       13.56380160      13.49311194       0.63571717  T
C       13.54689972      14.90613139       0.82533210  T
C       12.31992448      15.61975637       0.81324577  T
C       12.31454553      17.02641310       1.03185844  T
C       13.54140715      17.73548381       1.15769589  T
C       13.54235828      19.15757327       1.25471239  T
C       12.31379686      19.87072481       1.28419399  T
C       14.77054719      -0.00839844       1.25963425  T
C       15.99886609       0.70403898       1.19535521  T
C       15.99910578       2.12719910       1.15656870  T
C       14.76980125       2.84054370       1.15051839  T
C       14.76898100       4.26147829       1.06504376  T
C       15.99964639       4.97072209       1.03548430  T
C       16.00051111       6.38931620       0.95952777  T
C       14.77123605       7.09809076       0.84761778  T
C       14.77315274       8.51641513       0.75452941  T
C       16.00312001       9.22707091       0.86774338  T
C       16.00418323      10.64612415       0.87548272  T
C       14.78374442      11.35818509       0.71224473  T
C       14.78231635      12.77395393       0.77590443  T
C       16.00253107      13.47949336       0.98458509  T
C       16.00103709      14.89694666       1.06739377  T
C       14.76931835      15.60679170       1.01994265  T
C       14.77003808      17.02498041       1.13895870  T
C       16.00058293      17.73780949       1.19958473  T
C       16.00112424      19.16008944       1.22328102  T
C       14.77146567      19.87149226       1.26234612  T
C       17.22691063      -0.00800783       1.14022681  T
C       18.45342409       0.70676201       1.05269238  T
C       18.45853987       2.12817653       1.05791471  T
C       17.22869747       2.83870876       1.09657180  T
C       17.23013851       4.25958059       1.06327428  T
C       18.46268337       4.96706154       1.03851145  T
C       18.46338161       6.38719341       1.02577021  T
C       17.23214900       7.09766894       0.98495676  T
C       17.23257316       8.51778056       0.96981191  T
C       18.46469997       9.22542829       1.04046748  T
C       18.46483244      10.64478803       1.07599553  T
C       17.23202280      11.35280436       1.01737623  T
C       17.23276423      12.77167576       1.06733366  T
C       18.46443280      13.47984157       1.16583375  T
C       18.46399461      14.89991067       1.19891944  T
C       17.23096947      15.60782614       1.16849428  T
C       17.23221307      17.02937026       1.19434418  T
C       18.46317505      17.74247156       1.18987779  T
C       18.46176525      19.16465124       1.14119949  T
C       17.22976418      19.87395406       1.16973902  T
Fe       8.76225496      10.92231820       6.47176532  T
Fe       9.64061805      14.34055381       4.21414050  T
Fe      10.98632777      10.13331930       6.10496866  T
Fe      10.35431905      13.04133656       2.34286104  T
Fe       7.28340097      11.01427940       4.42166216  T
Fe      10.65219580      12.79645700       6.27967519  T
Fe      10.07947548      10.67692147       2.16667184  T
Fe       9.97447511      11.71092619       4.11972847  T
Fe      11.93013347      13.69346123       4.08325474  T
Fe       9.15735400       9.33559943       4.29349146  T
Fe       7.83749299      10.09321636       2.44105066  T
Fe      12.63086140      11.56278459       4.96564564  T
Fe      12.58258992      11.80527936       2.58269082  T
Fe      11.55884602       9.68277841       3.67213536  T
Fe       7.96835906      12.84801563       2.87661410  T
Fe       8.09807161      13.10132013       5.53470741  T
176
Lattice="19.68 0.0 0.0 0.0 21.304224933097192 0.0 0.0 0.0 21.0" Properties=species:S:1:pos:R:3:move_mask:L:1 name=graphene n_fixed_layers=0 isomer=B4 support=graphene energy=-1598.148478057673 pbc="T T T"
C        0.00000000       0.00000000       1.00000000  F
C        1.22809343       0.70960005       1.09320260  T
C        1.22393592       2.13016938       1.17896595  T
C       -0.00908560       2.84109713       1.19499513  T
C       -0.01229453       4.26237609       1.25257304  T
C        1.22114012       4.97270790       1.25877921  T
C        1.22024803       6.39366966       1.22658923  T
C       -0.01556004       7.10254526       1.22141987  T
C       -0.01636610       8.52148236       1.15532780  T
C        1.21919661       9.22645878       1.08267522  T
C        1.21796474      10.64467888       1.01911393  T
C       -0.01604122      11.35506767       1.01828248  T
C       -0.01506824      12.77487882       0.97055727  T
C        1.21843338      13.48238598       0.95659058  T
C        1.22016084      14.90341869       0.95360672  T
C       -0.01042156      15.61602517       0.93590965  T
C       -0.00803019      17.03764020       0.93745834  T
C        1.22434832      17.74680460       0.97963399  T
C        1.22604201      19.16908335       1.00044096  T
C       -0.00403112      19.88250727       0.96896972  T
C        2.45835468      -0.00427081       1.12602287  T
C        3.68763169       0.70584948       1.20776587  T
C        3.68702070       2.12915937       1.23396384  T
C        2.45497079       2.84067122       1.23209930  T
C        2.45483014       4.26290580       1.24319670  T
C        3.68708787       4.97345496       1.17255923  T
C        3.68677286       6.39180875       1.07227270  T
C        2.45386898       7.10032660       1.12673132  T
C        2.45386830       8.51722211       1.03687987  T
C        3.68169911       9.21861743       0.85308300  T
C        3.67934314      10.63741644       0.81406222  T
C        2.45052820      11.34952408       0.93007973  T
C        2.44994847      12.76993568       0.92401991  T
C        3.68132957      13.47690365       0.87768730  T
C        3.68318757      14.89717258       0.94116924  T
C        2.45297489      15.61128313       0.97135841  T
C        2.45475935      17.03298001       1.00553978  T
C        3.68704740      17.74013218       1.06447469  T
C        3.68716190      19.16258248       1.11778197  T
C        2.45726285      19.87743799       1.07917303  T
C        4.91721216      -0.00883369       1.23501632  T
C        6.14701573       0.70372441       1.25944721  T
C        6.14771217       2.12889081       1.22496600  T
C        4.91805376       2.84157593       1.22019281  T
C        4.91835053       4.26359181       1.14388153  T
C        6.14361682       4.97170254       0.97702713  T
C        6.12780642       6.37479452       0.76197286  T
C        4.90962285       7.09164861       0.84921054  T
C        4.90474558       8.50542450       0.69532511  T
C        6.11176442       9.20526212       0.39123742  T
C        6.11021250      10.63298502       0.39879632  T
C        4.90118713      11.34726565       0.65067392  T
C        4.90855345      12.76387455       0.74352223  T
C        6.13207374      13.47509989       0.69193107  T
C        6.14328281      14.88958524       0.85378111  T
C        4.91601380      15.60333842       0.95709560  T
C        4.91676646      17.02403715       1.05169687  T
C        6.14782091      17.73099771       1.10875763  T
C        6.14685394      19.15416585       1.19330104  T
C        4.91754217      19.87106011       1.19405037  T
C        7.37568031      -0.01207758       1.26268544  T
C        8.60385437       0.70249262       1.24679939  T
C        8.60302474       2.12781573       1.17544551  T
C        7.37544609       2.84297125       1.14633087  T
C        7.37414457       4.26070448       0.98000683  T
C        8.59697459       4.95421298       0.77352793  T
C        8.58753529       6.34712384       0.45463556  T
C        7.34140779       7.06731893       0.42729083  T
C        7.33053538       8.48673540       0.19749223  T
C        8.57278165       9.19217801      -0.05672915  T
C        8.57968546      10.63828091      -0.07587963  T
C        7.34235850      11.35167432       0.19965906  T
C        7.35655883      12.78004036       0.44272143  T
C        8.59583313      13.49437611       0.43826043  T
C        8.60225167      14.89069101       0.71455698  T
C        7.37562041      15.59691700       0.88252237  T
C        7.37618534      17.01424795       1.04602925  T
C        8.60495211      17.72568700       1.09547757  T
C        8.60426681      19.14935762       1.19942178  T
C        7.37623159      19.86558651       1.23572192  T
C        9.83209517      -0.01279862       1.23780351  T
C       11.05969858       0.70181332       1.20418122  T
C       11.05729927       2.12611286       1.13670501  T
C        9.82925791       2.83897689       1.08297143  T
C        9.82765571       4.25109434       0.87468615  T
C       11.05617923       4.94492501       0.74917341  T
C       11.06786114       6.34604695       0.45638860  T
C        9.82952974       7.04359428       0.23064215  T
C        9.83133046       8.46924239      -0.02906862  T
C       11.08346204       9.19760208      -0.00649181  T
C       11.08043504      10.64752814      -0.06019807  T
C        9.82707172      11.36604753      -0.09426126  T
C        9.82801919      12.78847580       0.19850031  T
C       11.07217956      13.49369815       0.40424139  T
C       11.05919452      14.89757124       0.66377421  T
C        9.83224048      15.59810507       0.80175312  T
C        9.83189919      17.01347193       0.99712643  T
C       11.05893671      17.73082625       1.03991463  T
C       11.05985615      19.15308648       1.14832855  T
C        9.83200212      19.86495288       1.21354596  T
C       12.28885456      -0.01022619       1.17741237  T
C       13.51774924       0.70396279       1.15028691  T
C       13.51500074       2.12702244       1.13345767  T
C       12.28425964       2.83718084       1.08297274  T
C       12.28074426       4.25476057       0.93354765  T
C       13.51006452       4.97077860       0.94873171  T
C       13.51334615       6.38308439       0.79609895  T
C       12.29708362       7.07286508       0.50862921  T
C       12.30409576       8.49655432       0.33010221  T
C       13.52384978       9.22423191       0.52661585  T
C       13.52792757      10.64036626       0.45629044  T
C       12.30922803      11.36145531       0.22262727  T
C       12.29786492      12.78742455       0.37542299  T
C       13.51550529      13.48334510       0.59064376  T
C       13.51574947      14.90208101       0.72867106  T
C       12.28551430      15.60812220       0.77824392  T
C       12.28700035      17.02515364       0.94073339  T
C       13.51608102      17.74031510       0.97953710  T
C       13.51780442      19.16139792       1.06825088  T
C       12.28819992      19.86972766       1.14363494  T
C       14.74864398      -0.00620223       1.10790175  T
C       15.97924388       0.70699344       1.10152605  T
C       15.97655428       2.12902885       1.14365135  T
C       14.74389156       2.83986081       1.13195008  T
C       14.73881639       4.26217811       1.08789727  T
C       15.96776660       4.97336444       1.13621191  T
C       15.96276090       6.39425682       1.08203457  T
C       14.73423335       7.10025848       0.90511267  T
C       14.73359314       8.51834703       0.79889688  T
C       15.96097681       9.22724980       0.92347431  T
C       15.96536727      10.64633541       0.85190928  T
C       14.74517232      11.35309369       0.66979702  T
C       14.74475188      12.77125445       0.68888226  T
C       15.97185440      13.48299940       0.81564683  T
C       15.97531903      14.90452892       0.83737241  T
C       14.74463781      15.61333688       0.82644665  T
C       14.74655040      17.03350899       0.91281760  T
C       15.97751674      17.74691459       0.93581770  T
C       15.97955462      19.16814595       0.99333988  T
C       14.74835426      19.87577766       1.05940234  T
C       17.21201171      -0.00177009       1.04392280  T
C       18.44447649       0.70966067       1.05167793  T
C       18.44048689       2.12964462       1.14271624  T
C       17.20695646       2.84059401       1.17223827  T
C       17.20157529       4.26250469       1.20284016  T
C       18.43285340       4.97311373       1.24142892  T
C       18.42937900       6.39444563       1.22539528  T
C       17.19445698       7.10344450       1.14497291  T
C       17.19201658       8.52225439       1.07907950  T
C       18.42783242       9.22947362       1.10439814  T
C       18.42921367      10.64796420       1.03245276  T
C       17.19777128      11.35590588       0.94021569  T
C       17.20112941      12.77511299       0.89956127  T
C       18.43383041      13.48572906       0.93393173  T
C       18.43694028      14.90641709       0.91330241  T
C       17.20631627      15.61659575       0.88544103  T
C       17.20876197      17.03807111       0.90890460  T
C       18.44113321      17.74945214       0.92535978  T
C       18.44318210      19.17149423       0.94965255  T
C       17.21148629      19.88085222       0.99115530  T
Fe       8.65349836      11.62032323       4.57280121  T
Fe      10.58446521      10.45029367       6.24406982  T
Fe       7.10565336       9.61936586       3.89891691  T
Fe      11.23012190      11.31868622       4.07234267  T
Fe       9.04012636       9.81785444       2.02967280  T
Fe       9.79864237      12.20493694       2.43806588  T
Fe      11.92257632       8.84301556       4.29634923  T
Fe       8.16837413       9.65939058       6.27466451  T
Fe       7.98978981       7.44611450       5.02408010  T
Fe       8.16374531       7.48990437       2.63876702  T
Fe      10.19781030       8.00125417       6.31779570  T
Fe       9.56583150       9.34549761       4.06631612  T
Fe      10.67809063       7.98191471       2.21344156  T
Fe       7.41735613      11.54282219       2.47912368  T
Fe      10.32425331       6.80766946       4.13087403  T
Fe      11.55738766      10.14194714       2.16512737  T
176
Lattice="19.68 0.0 0.0 0.0 21.304224933097192 0.0 0.0 0.0 21.0" Properties=species:S:1:pos:R:3:move_mask:L:1 name=graphene n_fixed_layers=0 isomer=B5 support=graphene energy=-1598.0525545049252 pbc="T T T"
C        0.00000000       0.00000000       1.00000000  F
C        1.22817700       0.71176170       1.07748938  T
C        1.22441620       2.13408185       1.09765536  T
C       -0.00869032       2.84479819       1.07802552  T
C       -0.01233664       4.26605895       1.08929691  T
C        1.21957682       4.97602385       1.08241601  T
C        1.21743674       6.39602777       1.05080944  T
C       -0.01685490       7.10508108       1.05648319  T
C       -0.01645284       8.52475038       1.03083249  T
C        1.21941158       9.23127020       0.99744093  T
C        1.22234396      10.65048165       0.99959295  T
C       -0.01137781      11.35997538       1.01366694  T
C       -0.00818863      12.77971442       1.02845334  T
C        1.22704300      13.48629243       1.06477863  T
C        1.22857884      14.90666564       1.10200683  T
C       -0.00355951      15.61857079       1.07347923  T
C       -0.00225850      17.04011554       1.07702275  T
C        1.23033727      17.74928923       1.12173287  T
C        1.23115778      19.17152919       1.10310394  T
C       -0.00010781      19.88259642       1.02717221  T
C        2.45899810       0.00125684       1.16215079  T
C        3.68814570       0.71432885       1.23064958  T
C        3.68760320       2.13747200       1.19184411  T
C        2.45508639       2.84592413       1.13658082  T
C        2.45341070       4.26729482       1.09279652  T
C        3.68390127       4.97795211       1.01854153  T
C        3.68050421       6.39507648       0.90361686  T
C        2.44952287       7.10360864       0.96568984  T
C        2.45108467       8.52242024       0.92564209  T
C        3.68012448       9.22875737       0.78380999  T
C        3.68621852      10.64675864       0.82689351  T
C        2.45829726      11.35596367       0.96271713  T
C        2.45982003      12.77494729       1.02700773  T
C        3.69452578      13.48009382       1.03180175  T
C        3.69376023      14.89901491       1.12865370  T
C        2.46147441      15.61353704       1.15119255  T
C        2.46093883      17.03553317       1.17951861  T
C        3.69226345      17.74457890       1.23836416  T
C        3.69121898      19.16892682       1.25201399  T
C        2.46136137      19.88228433       1.17477456  T
C        4.91901924       0.00333656       1.29730307  T
C        6.14830777       0.71906839       1.29978957  T
C        6.14861617       2.14346514       1.21201818  T
C        4.91827476       2.85222971       1.16522442  T
C        4.91835801       4.27102021       1.03131824  T
C        6.14231031       4.97616996       0.85757269  T
C        6.12423102       6.38351224       0.61399262  T
C        4.90131276       7.10135107       0.69784968  T
C        4.89611616       8.51459363       0.59495665  T
C        6.10998443       9.22774065       0.35145797  T
C        6.12611768      10.65203190       0.45943683  T
C        4.91686008      11.35518193       0.72228157  T
C        4.92312349      12.77037806       0.88607737  T
C        6.14860317      13.48057288       0.87150015  T
C        6.15348348      14.89203519       1.05602627  T
C        4.92493576      15.60616699       1.16346229  T
C        4.92307905      17.02918699       1.24446659  T
C        6.15273255      17.74069633       1.28297636  T
C        6.15050007      19.16668154       1.33012315  T
C        4.92050166      19.88179148       1.30891547  T
C        7.37768856       0.00515936       1.32480198  T
C        8.60520693       0.72051471       1.27240282  T
C        8.60325107       2.14341324       1.15306380  T
C        7.37485070       2.85810167       1.10806639  T
C        7.37114739       4.26995341       0.89315596  T
C        8.59811844       4.96049115       0.66974883  T
C        8.58710072       6.34996657       0.30327553  T
C        7.33764112       7.06588152       0.26481606  T
C        7.33065918       8.50331326       0.09528507  T
C        8.57411989       9.22626130      -0.10151595  T
C        8.58297346      10.66994010       0.04754730  T
C        7.35579779      11.37596991       0.36122835  T
C        7.37086929      12.78303277       0.62561396  T
C        8.60176441      13.49600430       0.64480913  T
C        8.60792903      14.90228467       0.90863992  T
C        7.38428286      15.60382990       1.07966075  T
C        7.38207689      17.02549739       1.22189366  T
C        8.60936610      17.73994062       1.24221939  T
C        8.60765113      19.16663075       1.31474762  T
C        7.37886984      19.88205027       1.34429675  T
C        9.83390298       0.00494473       1.27556571  T
C       11.06102623       0.71862686       1.21229957  T
C       11.05711179       2.14110357       1.10329090  T
C        9.82862861       2.85249562       1.02992743  T
C        9.82719990       4.26036692       0.78737406  T
C       11.05217045       4.96302431       0.66010361  T
C       11.05913158       6.36015956       0.35329457  T
C        9.82415305       7.05741969       0.09095411  T
C        9.82447852       8.50108327      -0.15430635  T
C       11.07033732       9.23235692      -0.12254877  T
C       11.07425428      10.67758899      -0.06099291  T
C        9.82724516      11.40268642       0.03519477  T
C        9.82755908      12.80528094       0.38075054  T
C       11.06862417      13.51264719       0.51156705  T
C       11.06173303      14.90669614       0.79368270  T
C        9.83399139      15.60991800       0.95834141  T
C        9.83588607      17.02722475       1.14022093  T
C       11.06410336      17.74309519       1.15802646  T
C       11.06372754      19.16752484       1.23607497  T
C        9.83530453      19.88193240       1.29413426  T
C       12.29054887       0.00403135       1.20404071  T
C       13.51883540       0.71715854       1.15356170  T
C       13.51473658       2.14066702       1.09558728  T
C       12.28406961       2.85334359       1.03068330  T
C       12.28029148       4.26836897       0.85502252  T
C       13.50810756       4.98259436       0.84639532  T
C       13.50995053       6.39611407       0.67353992  T
C       12.29086489       7.08765301       0.39839802  T
C       12.30191242       8.51655395       0.17777114  T
C       13.53056144       9.23677052       0.39862667  T
C       13.53637366      10.65756508       0.38810421  T
C       12.31149664      11.38822904       0.18392649  T
C       12.29411360      12.80803714       0.43639659  T
C       13.51770378      13.49716533       0.66413771  T
C       13.51827516      14.90947619       0.83445961  T
C       12.29036181      15.61710615       0.90224998  T
C       12.29192973      17.03405344       1.05937737  T
C       13.52071595      17.74972455       1.08054688  T
C       13.52150392      19.17208841       1.14428562  T
C       12.29184944      19.88297594       1.20689398  T
C       14.74982263       0.00415694       1.12676494  T
C       15.97995565       0.71514452       1.08563749  T
C       15.97604622       2.13786309       1.08434113  T
C       14.74369927       2.85181100       1.06761697  T
C       14.73762587       4.27335898       0.98499952  T
C       15.96822683       4.98203360       0.99954187  T
C       15.96249805       6.40212397       0.93130341  T
C       14.73257787       7.10995612       0.76642589  T
C       14.73685556       8.52670008       0.66225682  T
C       15.96473366       9.23485615       0.80486724  T
C       15.96939316      10.65506537       0.78550348  T
C       14.74597830      11.36531345       0.63427939  T
C       14.74381307      12.78278098       0.72461417  T
C       15.97345716      13.48981029       0.87027242  T
C       15.97831617      14.91005292       0.93405084  T
C       14.74837734      15.62012266       0.93537028  T
C       14.75046208      17.04023506       1.02258368  T
C       15.98176064      17.75221375       1.04068231  T
C       15.98233586      19.17444390       1.06643683  T
C       14.75136400      19.88521144       1.11729132  T
C       17.21263443       0.00347562       1.03979894  T
C       18.44495843       0.71267431       1.01581302  T
C       18.44028181       2.13449394       1.05490578  T
C       17.20680585       2.84736580       1.07174425  T
C       17.20150648       4.26927674       1.06030147  T
C       18.43351174       4.97700845       1.07352223  T
C       18.42934836       6.39751270       1.05446363  T
C       17.19544437       7.10806888       0.98655741  T
C       17.19409641       8.52718656       0.94293326  T
C       18.42950308       9.23352366       0.99528290  T
C       18.43291134      10.65297676       0.97891145  T
C       17.20083886      11.36154719       0.90591686  T
C       17.20491948      12.78104558       0.92579689  T
C       18.43899061      13.48917963       0.99934604  T
C       18.44288400      14.90955529       1.02259800  T
C       17.21116970      15.61968418       0.99785715  T
C       17.21302855      17.04102438       1.02752033  T
C       18.44575318      17.75156750       1.04360696  T
C       18.44630012      19.17346808       1.02625545  T
C       17.21386214      19.88541648       1.03659936  T
Fe       9.54895870       9.99872921       3.96617645  T
Fe       8.23413674      12.16786994       4.48066108  T
Fe       8.94619227      11.55493336       2.28951378  T
Fe       7.35877382       8.03475766       2.38968160  T
Fe       8.24005617       7.93460094       4.54603860  T
Fe       7.14038941      10.09433647       3.54177875  T
Fe       7.85852182      10.09896570       6.01100662  T
Fe      10.10606848      11.39877894       6.19950239  T
Fe      10.68449562      12.30445737       3.92340980  T
Fe       9.45513546       9.25161628       1.96756147  T
Fe      11.70605852      10.88165691       2.38206744  T
Fe      11.91229731      10.03613694       4.65901637  T
Fe      11.81170232       8.51356699       2.43085111  T
Fe      10.07349341       8.90329913       6.34422338  T
Fe      10.76297671       7.72093817       4.31131368  T
Fe       9.59434953       6.90443717       2.44063749  T
176
Lattice="19.68 0.0 0.0 0.0 21.304224933097192 0.0 0.0 0.0 21.0" Properties=species:S:1:pos:R:3:move_mask:L:1 name=graphene n_fixed_layers=0 isomer=B6 support=graphene energy=-1598.176660600311 pbc="T T T"
C        0.00000000       0.00000000       1.00000000  F
C        1.23237439       0.70860330       1.02842941  T
C        1.23215038       2.13051002       1.05906180  T
C       -0.00063109       2.84172373       1.06390171  T
C       -0.00081708       4.26330286       1.07473607  T
C        1.23297983       4.97226227       1.08435186  T
C        1.23389581       6.39253843       1.06926341  T
C       -0.00053199       7.10138994       1.03238506  T
C       -0.00057640       8.52025767       1.00239005  T
C        1.23524872       9.22719341       1.02150888  T
C        1.23521746      10.64624989       1.00856094  T
C       -0.00046886      11.35347924       0.97571704  T
C       -0.00134156      12.77233681       0.98701361  T
C        1.23285533      13.48115982       1.01816435  T
C        1.23158904      14.90136524       1.03239591  T
C       -0.00228367      15.61052794       1.03512611  T
C       -0.00151868      17.03233025       1.04767655  T
C        1.23069651      17.74383467       1.04350720  T
C        1.23039789      19.16643110       1.03192328  T
C       -0.00070331      19.87945089       1.01916234  T
C        2.46342501      -0.00514422       1.03907939  T
C        3.69531941       0.70562366       1.05624101  T
C        3.69660858       2.12850087       1.06419929  T
C        2.46505586       2.84034467       1.07356310  T
C        2.46608142       4.26204950       1.07755807  T
C        3.69949878       4.97217162       1.03138751  T
C        3.70250541       6.39261809       0.99349389  T
C        2.46900766       7.10070508       1.03696112  T
C        2.47035600       8.51973882       1.01018624  T
C        3.70448212       9.22683789       0.92147782  T
C        3.70397106      10.64475644       0.90629029  T
C        2.47004979      11.35326050       0.98289150  T
C        2.46775881      12.77255327       0.98915509  T
C        3.70091375      13.47980321       0.93607794  T
C        3.69796507      14.89993318       0.96450686  T
C        2.46473712      15.61072708       1.01944504  T
C        2.46319033      17.03218114       1.02938046  T
C        3.69548290      17.74164747       1.01607902  T
C        3.69474216      19.16388896       1.03128777  T
C        2.46293429      19.87644246       1.03328083  T
C        4.92626254      -0.00703813       1.05327187  T
C        6.15733396       0.70481764       1.04554979  T
C        6.15861122       2.12834092       1.01923401  T
C        4.92849361       2.84027669       1.03576218  T
C        4.93076698       4.26223923       0.99368281  T
C        6.16028875       4.97228038       0.87651146  T
C        6.16231132       6.39068339       0.77238628  T
C        4.93353922       7.10023601       0.86672331  T
C        4.93557522       8.52006925       0.80921212  T
C        6.15752251       9.22567498       0.60375111  T
C        6.15585217      10.64218264       0.58493159  T
C        4.93528415      11.35005788       0.77946139  T
C        4.93174932      12.77094832       0.81534649  T
C        6.15881024      13.47989228       0.71302809  T
C        6.15926695      14.89695772       0.81184913  T
C        4.92950375      15.60811491       0.92461239  T
C        4.92730868      17.02925777       0.97346030  T
C        6.15875908      17.73812581       0.97073205  T
C        6.15754962      19.16061050       1.01932591  T
C        4.92654667      19.87411570       1.03895524  T
C        7.38719591      -0.00813443       1.03942234  T
C        8.61616299       0.70583743       1.01707242  T
C        8.61663840       2.12967624       0.95425891  T
C        7.38761273       2.84140019       0.94668079  T
C        7.38889265       4.26179795       0.84134943  T
C        8.61377152       4.97092008       0.68391656  T
C        8.60852328       6.38157517       0.47743257  T
C        7.38431750       7.09276990       0.54798253  T
C        7.37303859       8.50669712       0.40794369  T
C        8.57651094       9.21068959       0.05720937  T
C        8.57352260      10.65371954       0.02025981  T
C        7.36876518      11.36187875       0.35543525  T
C        7.37661719      12.77760087       0.47697788  T
C        8.60012935      13.48924851       0.39366741  T
C        8.61540492      14.89689624       0.62288529  T
C        7.39145966      15.60389186       0.78764930  T
C        7.38876987      17.02384326       0.90392280  T
C        8.61794484      17.73318209       0.92806135  T
C        8.61675059      19.15699487       1.00327776  T
C        7.38789595      19.87160232       1.02900978  T
C        9.84473929      -0.00771208       1.02800245  T
C       11.07243833       0.70774028       1.01404352  T
C       11.07253140       2.13233681       0.94161611  T
C        9.84418709       2.84401351       0.88418524  T
C        9.84277027       4.26231437       0.73062642  T
C       11.06982454       4.97450769       0.61977068  T
C       11.06226309       6.37057098       0.35192328  T
C        9.83282680       7.07250778       0.23477267  T
C        9.82450446       8.48799138      -0.04423931  T
C       11.07567216       9.20790338      -0.22716228  T
C       11.06805261      10.65133010      -0.30784327  T
C        9.81331468      11.37561946      -0.16602575  T
C        9.82197572      12.79590854       0.10842012  T
C       11.06975265      13.50660549       0.20327219  T
C       11.07427853      14.90379521       0.50885381  T
C        9.84547956      15.60311129       0.66726429  T
C        9.84562043      17.01818593       0.84952793  T
C       11.07329185      17.73143409       0.90741527  T
C       11.07265811      19.15557457       0.99844643  T
C        9.84493342      19.87043422       1.02174937  T
C       12.29987977      -0.00668912       1.03914551  T
C       13.52723671       0.70859048       1.03939616  T
C       13.52658999       2.13349640       0.98576105  T
C       12.29976255       2.84831083       0.90816409  T
C       12.29949700       4.26839571       0.76172807  T
C       13.52938414       4.97768448       0.73106616  T
C       13.54223167       6.38447327       0.50960705  T
C       12.30752672       7.06918490       0.23550845  T
C       12.32091876       8.49042833      -0.05570766  T
C       13.57829233       9.20244710      -0.02892913  T
C       13.57286382      10.64577367      -0.06638061  T
C       12.31745161      11.36014666      -0.15518783  T
C       12.31532599      12.79231426       0.08963277  T
C       13.54744161      13.49215307       0.36559617  T
C       13.53210056      14.89928787       0.60363403  T
C       12.30261506      15.60391030       0.65763559  T
C       12.30108636      17.01899777       0.84713172  T
C       13.52737721      17.73395876       0.93848565  T
C       13.52768210      19.15784360       1.01995824  T
C       12.29970660      19.87132247       1.02938769  T
C       14.75592099      -0.00551058       1.05766015  T
C       15.98555355       0.70819431       1.05244749  T
C       15.98440578       2.13213528       1.03248245  T
C       14.75498421       2.84572748       0.97949826  T
C       14.75429384       4.26736309       0.88093784  T
C       15.98475406       4.97664610       0.89880578  T
C       15.98541184       6.39439821       0.77013631  T
C       14.76847747       7.09367349       0.52763282  T
C       14.78995770       8.50519608       0.31741591  T
C       16.00345917       9.22513871       0.52409764  T
C       16.00636532      10.64262871       0.49640660  T
C       14.79256450      11.36256793       0.25431951  T
C       14.77638058      12.78248366       0.41344328  T
C       15.98774829      13.47914042       0.67207892  T
C       15.98549504      14.89648635       0.80932415  T
C       14.75538123      15.60424868       0.78594291  T
C       14.75579852      17.02349377       0.91949989  T
C       15.98432159      17.73749227       1.00123309  T
C       15.98591185      19.16136454       1.04210640  T
C       14.75598825      19.87339893       1.05004829  T
C       17.21659443      -0.00401445       1.04401563  T
C       18.44774513       0.70906576       1.02681096  T
C       18.44700612       2.13155717       1.04746925  T
C       17.21522023       2.84355754       1.03879698  T
C       17.21429347       4.26566817       1.00628616  T
C       18.44659003       4.97436085       1.03428556  T
C       18.44544486       6.39460152       0.99047556  T
C       17.21655028       7.10320401       0.85083027  T
C       17.21882309       8.51997451       0.76952658  T
C       18.44687492       9.22719835       0.89558082  T
C       18.44700661      10.64623730       0.87982439  T
C       17.21972113      11.35220007       0.73128465  T
C       17.21718124      12.76926500       0.78560678  T
C       18.44470149      13.47888153       0.93291444  T
C       18.44548276      14.89935972       0.97950599  T
C       17.21317589      15.60706770       0.94510410  T
C       17.21530954      17.02842003       1.00681723  T
C       18.44660717      17.74234476       1.04178866  T
C       18.44807754      19.16585037       1.03816038  T
C       17.21634332      19.87631480       1.04585045  T
Fe      11.38428515      10.76761405       3.94996439  T
Fe      13.87707924      10.11811399       2.25599074  T
Fe      12.34490035       8.15439725       2.30309244  T
Fe       9.36047575      11.47074466       2.10898526  T
Fe       9.67638671      12.72355351       3.98700959  T
Fe      11.49057883      10.36123948       1.84600986  T
Fe      11.95164137      12.68097497       2.45320696  T
Fe      13.79032871      11.59389544       3.99824517  T
Fe      13.13376501       9.11240702       4.44574548  T
Fe       9.41070834       9.01607340       2.24260446  T
Fe      10.73016006       8.27861359       3.96480221  T
Fe      12.75776628      11.06246657       6.24094391  T
Fe      10.93272362       9.33943276       6.13834161  T
Fe      12.00188685      13.15142606       4.89874392  T
Fe      10.24793048      11.73694669       6.21446808  T
Fe       9.02796772      10.24886444       4.32332745  T
