208
Lattice="16.835164897366493 0.0 0.0 0.0 16.835164897366493 0.0 0.0 0.0 25.208791224341624" Properties=species:S:1:pos:R:3:move_mask:L:1 name=MgO100 n_fixed_layers=1 isomer=B0 support=MgO100 energy=-1265.8551231517733 pbc="T T T"
Mg       0.00000000       0.00000000       1.00000000  F
O        2.10439561       0.00000000       1.00000000  F
Mg      -0.00004424       2.10492661       3.11999227  T
O        2.10439460       2.10553255       3.12027786  T
Mg       2.10392100       0.00104462       3.12007301  T
O       -0.00001629       0.00060651       3.12105195  T
Mg       2.10439561       2.10439561       1.00000000  F
O        0.00000000       2.10439561       1.00000000  F
Mg      -0.00029243       0.00210670       5.20799611  T
O        2.10418651       0.00179597       5.27018817  T
Mg       2.10406746       2.10641738       5.20740545  T
O       -0.00034442       2.10584287       5.27025496  T
Mg       0.00000000       4.20879122       1.00000000  F
O        2.10439561       4.20879122       1.00000000  F
Mg      -0.00005537       6.31440077       3.11966228  T
O        2.10418336       6.31402018       3.11895611  T
Mg       2.10423994       4.20973154       3.11975286  T
O       -0.00017128       4.20949402       3.12010338  T
Mg       2.10439561       6.31318684       1.00000000  F
O        0.00000000       6.31318684       1.00000000  F
Mg      -0.00021993       4.21034048       5.20742141  T
O        2.10436016       4.21101952       5.27012607  T
Mg       2.10429071       6.31496317       5.20621336  T
O       -0.00020180       6.31578812       5.26995464  T
Mg       0.00000000       8.41758245       1.00000000  F
O        2.10439561       8.41758245       1.00000000  F
Mg      -0.00010518      10.52356038       3.11974578  T
O        2.10437077      10.52315189       3.11883881  T
Mg       2.10447276       8.41837923       3.11982789  T
O       -0.00029964       8.41913778       3.12008915  T
Mg       2.10439561      10.52197806       1.00000000  F
O        0.00000000      10.52197806       1.00000000  F
Mg      -0.00018770       8.41993506       5.20647868  T
O        2.10566621       8.41924508       5.26963752  T
Mg       2.10453877      10.52333731       5.20564013  T
O       -0.00027943      10.52375714       5.26993242  T
Mg       0.00000000      12.62637367       1.00000000  F
O        2.10439561      12.62637367       1.00000000  F
Mg      -0.00009716      14.73233203       3.12027344  T
O        2.10447831      14.73171929       3.12012328  T
Mg       2.10452704      12.62771500       3.11960509  T
O       -0.00010937      12.62828531       3.12014310  T
Mg       2.10439561      14.73076929       1.00000000  F
O        0.00000000      14.73076929       1.00000000  F
Mg      -0.00020483      12.62861737       5.20725099  T
O        2.10514340      12.62755262       5.26992706  T
Mg       2.10438577      14.73258614       5.20718552  T
O       -0.00029414      14.73271733       5.27017789  T
Mg       4.20879122       0.00000000       1.00000000  F
O        6.31318684       0.00000000       1.00000000  F
Mg       4.20829505       2.10591342       3.11991249  T
O        6.31289491       2.10530855       3.11982029  T
Mg       6.31259258       0.00118254       3.11968934  T
O        4.20796406       0.00085857       3.11981605  T
Mg       6.31318684       2.10439561       1.00000000  F
O        4.20879122       2.10439561       1.00000000  F
Mg       4.20799035       0.00157514       5.20700268  T
O        6.31326965       0.00072650       5.26987926  T
Mg       6.31300420       2.10658030       5.20667561  T
O        4.20896121       2.10638083       5.27023181  T
Mg       4.20879122       4.20879122       1.00000000  F
O        6.31318684       4.20879122       1.00000000  F
Mg       4.20860540       6.31360329       3.11892832  T
O        6.31316693       6.31364725       3.11475173  T
Mg       6.31268112       4.20994879       3.11968523  T
O        4.20841292       4.20995308       3.11872800  T
Mg       6.31318684       6.31318684       1.00000000  F
O        4.20879122       6.31318684       1.00000000  F
Mg       4.20926999       4.21117964       5.20580201  T
O        6.31237084       4.21094449       5.26812035  T
Mg       6.31166682       6.31485823       5.20462089  T
O        4.20804957       6.31442518       5.26740490  T
Mg       4.20879122       8.41758245       1.00000000  F
O        6.31318684       8.41758245       1.00000000  F
Mg       4.20813903      10.52327468       3.11886313  T
O        6.31522876      10.52339084       3.11650917  T
Mg       6.31141317       8.41763824       3.11574246  T
O        4.20776327       8.41861651       3.11630492  T
Mg       6.31318684      10.52197806       1.00000000  F
O        4.20879122      10.52197806       1.00000000  F
Mg       4.20911400       8.41818277       5.20230968  T
O        6.31044123       8.41908419       5.25923832  T
Mg       6.30588910      10.52372450       5.20611373  T
O        4.20824925      10.52362715       5.26687958  T
Mg       4.20879122      12.62637367       1.00000000  F
O        6.31318684      12.62637367       1.00000000  F
Mg       4.20847469      14.73155240       3.11933000  T
O        6.31339253      14.73144970       3.11822797  T
Mg       6.31224040      12.62767976       3.11933374  T
O        4.20897177      12.62729560       3.11776321  T
Mg       6.31318684      14.73076929       1.00000000  F
O        4.20879122      14.73076929       1.00000000  F
Mg       4.20892540      12.62804461       5.20427931  T
O        6.31326432      12.62728138       5.26687640  T
Mg       6.31248826      14.73206188       5.20500145  T
O        4.20921775      14.73158286       5.26967862  T
Mg       8.41758245       0.00000000       1.00000000  F
O       10.52197806       0.00000000       1.00000000  F
Mg       8.41739634       2.10585538       3.12024060  T
O       10.52192784       2.10544120       3.11968711  T
Mg      10.52208514       0.00124841       3.11953399  T
O        8.41739296       0.00063641       3.12022775  T
Mg      10.52197806       2.10439561       1.00000000  F
O        8.41758245       2.10439561       1.00000000  F
Mg       8.41722473       0.00148791       5.20627029  T
O       10.52128706       0.00086649       5.26956742  T
Mg      10.52155150       2.10664543       5.20652759  T
O        8.41739666       2.10755950       5.27010106  T
Mg       8.41758245       4.20879122       1.00000000  F
O       10.52197806       4.20879122       1.00000000  F
Mg       8.41690875       6.31287811       3.11538025  T
O       10.52155379       6.31400122       3.11535972  T
Mg      10.52186652       4.20982251       3.11948535  T
O        8.41746353       4.20962602       3.11737946  T
Mg      10.52197806       6.31318684       1.00000000  F
O        8.41758245       6.31318684       1.00000000  F
Mg       8.41699037       4.21111786       5.20463888  T
O       10.52221627       4.21135155       5.26795593  T
Mg      10.52349872       6.31404645       5.19980248  T
O        8.41729967       6.31222433       5.26372344  T
Mg       8.41758245       8.41758245       1.00000000  F
O       10.52197806       8.41758245       1.00000000  F
Mg       8.41703932      10.52332549       3.11324527  T
O       10.51952742      10.52314586       3.11700456  T
Mg      10.52316819       8.41794564       3.11505871  T
O        8.41772664       8.42032817       3.11211096  T
Mg      10.52197806      10.52197806       1.00000000  F
O        8.41758245      10.52197806       1.00000000  F
Mg       8.41600103       8.41257558       5.21257492  T
O       10.52393165       8.41933222       5.25970485  T
Mg      10.52855752      10.52445093       5.20468823  T
O        8.41732201      10.52404602       5.28047295  T
Mg       8.41758245      12.62637367       1.00000000  F
O       10.52197806      12.62637367       1.00000000  F
Mg       8.41748163      14.73147740       3.11988977  T
O       10.52152314      14.73155627       3.11804420  T
Mg      10.52242291      12.62779639       3.11919982  T
O        8.41737882      12.62489047       3.11971889  T
Mg      10.52197806      14.73076929       1.00000000  F
O        8.41758245      14.73076929       1.00000000  F
Mg       8.41700861      12.63277237       5.20589972  T
O       10.52131345      12.62758433       5.26575509  T
Mg      10.52221576      14.73230603       5.20474208  T
O        8.41738967      14.73025726       5.27016542  T
Mg      12.62637367       0.00000000       1.00000000  F
O       14.73076929       0.00000000       1.00000000  F
Mg      12.62647304       2.10580718       3.11972300  T
O       14.73048002       2.10556961       3.12014666  T
Mg      14.73108687       0.00104703       3.11996686  T
O       12.62675921       0.00093270       3.11958847  T
Mg      14.73076929       2.10439561       1.00000000  F
O       12.62637367       2.10439561       1.00000000  F
Mg      12.62655137       0.00168637       5.20663124  T
O       14.73041627       0.00180127       5.26971884  T
Mg      14.73053243       2.10632184       5.20724957  T
O       12.62559208       2.10655984       5.26996236  T
Mg      12.62637367       4.20879122       1.00000000  F
O       14.73076929       4.20879122       1.00000000  F
Mg      12.62650337       6.31355659       3.11875918  T
O       14.73071286       6.31402415       3.11906315  T
Mg      14.73072216       4.20967661       3.11978925  T
O       12.62624092       4.21007397       3.11860057  T
Mg      14.73076929       6.31318684       1.00000000  F
O       12.62637367       6.31318684       1.00000000  F
Mg      12.62542074       4.21127951       5.20559115  T
O       14.73022356       4.21113485       5.27030303  T
Mg      14.73038431       6.31490489       5.20595634  T
O       12.62560030       6.31460844       5.26706332  T
Mg      12.62637367       8.41758245       1.00000000  F
O       14.73076929       8.41758245       1.00000000  F
Mg      12.62671436      10.52344211       3.11907025  T
O       14.73032289      10.52321012       3.11914339  T
Mg      14.73053889       8.41850580       3.12005380  T
O       12.62678298       8.41872638       3.11648026  T
Mg      14.73076929      10.52197806       1.00000000  F
O       12.62637367      10.52197806       1.00000000  F
Mg      12.62621706       8.41831969       5.20274601  T
O       14.72875981       8.41916610       5.27008119  T
Mg      14.73005029      10.52354638       5.20578180  T
O       12.62556214      10.52367846       5.26793502  T
Mg      12.62637367      12.62637367       1.00000000  F
O       14.73076929      12.62637367       1.00000000  F
Mg      12.62633063      14.73169697       3.11914404  T
O       14.73038995      14.73172519       3.11997112  T
Mg      14.73036318      12.62776773       3.11966736  T
O       12.62580006      12.62714836       3.11768620  T
Mg      14.73076929      14.73076929       1.00000000  F
O       12.62637367      14.73076929       1.00000000  F
Mg      12.62573619      12.62817756       5.20399424  T
O       14.72947082      12.62761432       5.26991831  T
Mg      14.73025814      14.73263461       5.20711088  T
O       12.62548057      14.73173778       5.26945505  T
Fe      10.35773102       8.80483191       9.22163192  T
Fe       7.19683355       6.91959129      13.00787919  T
Fe       7.28263452      11.06342934      10.66562935  T
Fe       9.74031412       6.71673156      12.74012551  T
Fe       6.46695771       9.29517313      12.34696959  T
Fe      10.32076276       6.77944692      10.36934639  T
Fe       8.17959887       5.74342732      10.94921156  T
Fe       8.27141928       9.91868787       8.60555424  T
Fe       8.09452745       7.35052332       8.95479628  T
Fe       6.15283232       7.10918147      10.80668563  T
Fe       6.20553477       9.13328837       9.65245731  T
Fe       8.41423784       8.53323376      11.05260559  T
Fe       8.74409926      10.71945448      12.59027025  T
Fe      10.67792735       8.96117344      11.90770875  T
Fe       8.70887716       8.69288069      13.74277133  T
Fe       9.82298826      10.86007598      10.40645631  T
208
Lattice="16.835164897366493 0.0 0.0 0.0 16.835164897366493 0.0 0.0 0.0 25.208791224341624" Properties=species:S:1:pos:R:3:move_mask:L:1 name=MgO100 n_fixed_layers=1 isomer=B1 support=MgO100 energy=-1265.8443098970308 pbc="T T T"
Mg       0.00000000       0.00000000       1.00000000  F
O        2.10439561       0.00000000       1.00000000  F
Mg      -0.00012788       2.10428993       3.11936246  T
O        2.10484776       2.10512968       3.11923163  T
Mg       2.10387675       0.00031517       3.11922078  T
O       -0.00007627       0.00057273       3.11997432  T
Mg       2.10439561       2.10439561       1.00000000  F
O        0.00000000       2.10439561       1.00000000  F
Mg      -0.00003701       0.00008977       5.20671936  T
O        2.10478146       0.00038272       5.26860412  T
Mg       2.10429671       2.10475302       5.20592666  T
O       -0.00003473       2.10499245       5.26908174  T
Mg       0.00000000       4.20879122       1.00000000  F
O        2.10439561       4.20879122       1.00000000  F
Mg       0.00009920       6.31303444       3.11870938  T
O        2.10506488       6.31377652       3.11829170  T
Mg       2.10474845       4.20871435       3.11904127  T
O        0.00012082       4.20885927       3.11902807  T
Mg       2.10439561       6.31318684       1.00000000  F
O        0.00000000       6.31318684       1.00000000  F
Mg      -0.00027311       4.20884594       5.20559524  T
O        2.10509226       4.20973498       5.26850468  T
Mg       2.10451886       6.31327656       5.20458380  T
O        0.00011611       6.31376199       5.26730640  T
Mg       0.00000000       8.41758245       1.00000000  F
O        2.10439561       8.41758245       1.00000000  F
Mg      -0.00004112      10.52235508       3.11891150  T
O        2.10486044      10.52194828       3.11807253  T
Mg       2.10482836       8.41796490       3.11919805  T
O        0.00034562       8.41740725       3.11882589  T
Mg       2.10439561      10.52197806       1.00000000  F
O        0.00000000      10.52197806       1.00000000  F
Mg      -0.00035150       8.41770721       5.20482207  T
O        2.10583615       8.41816255       5.26919102  T
Mg       2.10435394      10.52311603       5.20451559  T
O        0.00004385      10.52146271       5.26761646  T
Mg       0.00000000      12.62637367       1.00000000  F
O        2.10439561      12.62637367       1.00000000  F
Mg      -0.00001877      14.73150338       3.11921820  T
O        2.10461045      14.73063110       3.11932361  T
Mg       2.10433356      12.62696433       3.11884165  T
O        0.00017852      12.62672881       3.11913846  T
Mg       2.10439561      14.73076929       1.00000000  F
O        0.00000000      14.73076929       1.00000000  F
Mg      -0.00026894      12.62672895       5.20538693  T
O        2.10481068      12.62618224       5.26865299  T
Mg       2.10461705      14.73095855       5.20596072  T
O        0.00007690      14.73102638       5.26856711  T
Mg       4.20879122       0.00000000       1.00000000  F
O        6.31318684       0.00000000       1.00000000  F
Mg       4.20855232       2.10488271       3.11863853  T
O        6.31357583       2.10538460       3.11768516  T
Mg       6.31286126       0.00007764       3.11879367  T
O        4.20858472       0.00054011       3.11891745  T
Mg       6.31318684       2.10439561       1.00000000  F
O        4.20879122       2.10439561       1.00000000  F
Mg       4.20857897       0.00031470       5.20507177  T
O        6.31363421       0.00086910       5.26726609  T
Mg       6.31253384       2.10475456       5.20366753  T
O        4.20916692       2.10554374       5.26829525  T
Mg       4.20879122       4.20879122       1.00000000  F
O        6.31318684       4.20879122       1.00000000  F
Mg       4.20847696       6.31284019       3.11906034  T
O        6.31481389       6.31463984       3.11707574  T
Mg       6.31262169       4.20899882       3.11900387  T
O        4.20956244       4.20957048       3.11746974  T
Mg       6.31318684       6.31318684       1.00000000  F
O        4.20879122       6.31318684       1.00000000  F
Mg       4.20852347       4.20864734       5.20377747  T
O        6.31320920       4.20883916       5.26730942  T
Mg       6.30661817       6.30887724       5.20724118  T
O        4.20868231       6.31371085       5.26757340  T
Mg       4.20879122       8.41758245       1.00000000  F
O        6.31318684       8.41758245       1.00000000  F
Mg       4.20868781      10.52295083       3.11844045  T
O        6.31297873      10.52083959       3.11541603  T
Mg       6.31180385       8.41833483       3.11253074  T
O        4.20990497       8.41748431       3.11746206  T
Mg       6.31318684      10.52197806       1.00000000  F
O        4.20879122      10.52197806       1.00000000  F
Mg       4.20504452       8.41925687       5.20340157  T
O        6.31140535       8.41850430       5.27128538  T
Mg       6.31111336      10.52808107       5.20154244  T
O        4.20905217      10.52260088       5.26675811  T
Mg       4.20879122      12.62637367       1.00000000  F
O        6.31318684      12.62637367       1.00000000  F
Mg       4.20845075      14.73064094       3.11903156  T
O        6.31316470      14.73089750       3.11821781  T
Mg       6.31330556      12.62659881       3.11806024  T
O        4.20914070      12.62608492       3.11765778  T
Mg       6.31318684      14.73076929       1.00000000  F
O        4.20879122      14.73076929       1.00000000  F
Mg       4.20894450      12.62653782       5.20392844  T
O        6.31290291      12.62706915       5.26648625  T
Mg       6.31333710      14.73076888       5.20483044  T
O        4.20937284      14.73039708       5.26836966  T
Mg       8.41758245       0.00000000       1.00000000  F
O       10.52197806       0.00000000       1.00000000  F
Mg       8.41748463       2.10497046       3.11868570  T
O       10.52149029       2.10515535       3.11728188  T
Mg      10.52249259       0.00003310       3.11870244  T
O        8.41751474       0.00048156       3.11874346  T
Mg      10.52197806       2.10439561       1.00000000  F
O        8.41758245       2.10439561       1.00000000  F
Mg       8.41792152       0.00022471       5.20441537  T
O       10.52180246       0.00101508       5.26721141  T
Mg      10.52287778       2.10493745       5.20294883  T
O        8.41770469       2.10590688       5.26835080  T
Mg       8.41758245       4.20879122       1.00000000  F
O       10.52197806       4.20879122       1.00000000  F
Mg       8.41776123       6.31235061       3.11241667  T
O       10.52000357       6.31318653       3.11538642  T
Mg      10.52259692       4.20866273       3.11813008  T
O        8.41716863       4.21100769       3.11784790  T
Mg      10.52197806       6.31318684       1.00000000  F
O        8.41758245       6.31318684       1.00000000  F
Mg       8.41830849       4.20379188       5.20458854  T
O       10.52217090       4.20930891       5.26510625  T
Mg      10.52992736       6.31151946       5.20273392  T
O        8.41757589       6.31204923       5.27808955  T
Mg       8.41758245       8.41758245       1.00000000  F
O       10.52197806       8.41758245       1.00000000  F
Mg       8.41858426      10.52407966       3.11400585  T
O       10.52228984      10.52252787       3.11326042  T
Mg      10.52344439       8.41908907       3.11366004  T
O        8.41583357       8.41553316       3.11048320  T
Mg      10.52197806      10.52197806       1.00000000  F
O        8.41758245      10.52197806       1.00000000  F
Mg       8.42121230       8.42515855       5.20772159  T
O       10.52431950       8.41792963       5.25862698  T
Mg      10.52341618      10.52335579       5.20786028  T
O        8.41703852      10.52531511       5.25885245  T
Mg       8.41758245      12.62637367       1.00000000  F
O       10.52197806      12.62637367       1.00000000  F
Mg       8.41765362      14.73056398       3.11881923  T
O       10.52186686      14.73073384       3.11834485  T
Mg      10.52219802      12.62615208       3.11840314  T
O        8.41738240      12.62757646       3.11558157  T
Mg      10.52197806      14.73076929       1.00000000  F
O        8.41758245      14.73076929       1.00000000  F
Mg       8.41838358      12.62625715       5.20215018  T
O       10.52253879      12.62698269       5.26744007  T
Mg      10.52212406      14.73059057       5.20488679  T
O        8.41765743      14.72994865       5.26821826  T
Mg      12.62637367       0.00000000       1.00000000  F
O       14.73076929       0.00000000       1.00000000  F
Mg      12.62677550       2.10489491       3.11851905  T
O       14.73033115       2.10503863       3.11943827  T
Mg      14.73111018       0.00044544       3.11931519  T
O       12.62675233       0.00065844       3.11887370  T
Mg      14.73076929       2.10439561       1.00000000  F
O       12.62637367       2.10439561       1.00000000  F
Mg      12.62664511       0.00036649       5.20509886  T
O       14.73037039       0.00041610       5.26889738  T
Mg      14.73058598       2.10497370       5.20637047  T
O       12.62588447       2.10564379       5.26832855  T
Mg      12.62637367       4.20879122       1.00000000  F
O       14.73076929       4.20879122       1.00000000  F
Mg      12.62678522       6.31310503       3.11753939  T
O       14.73068365       6.31348080       3.11755678  T
Mg      14.73046437       4.20861123       3.11882126  T
O       12.62596137       4.20930833       3.11688611  T
Mg      14.73076929       6.31318684       1.00000000  F
O       12.62637367       6.31318684       1.00000000  F
Mg      12.62620001       4.20906882       5.20322723  T
O       14.72989780       4.20993475       5.26829294  T
Mg      14.73037733       6.31366611       5.20336371  T
O       12.62697378       6.31335427       5.26511275  T
Mg      12.62637367       8.41758245       1.00000000  F
O       14.73076929       8.41758245       1.00000000  F
Mg      12.62596654      10.52273533       3.11808487  T
O       14.73050224      10.52196304       3.11770824  T
Mg      14.73034451       8.41798945       3.11858620  T
O       12.62704588       8.41751272       3.11534216  T
Mg      14.73076929      10.52197806       1.00000000  F
O       12.62637367      10.52197806       1.00000000  F
Mg      12.62671468       8.41928263       5.20112182  T
O       14.72946770       8.41783448       5.26791630  T
Mg      14.73035792      10.52250623       5.20411974  T
O       12.62707062      10.52277970       5.26697268  T
Mg      12.62637367      12.62637367       1.00000000  F
O       14.73076929      12.62637367       1.00000000  F
Mg      12.62671352      14.73053746       3.11885560  T
O       14.73076072      14.73090176       3.11904335  T
Mg      14.73072403      12.62680300       3.11856432  T
O       12.62623494      12.62615611       3.11766290  T
Mg      14.73076929      14.73076929       1.00000000  F
O       12.62637367      14.73076929       1.00000000  F
Mg      12.62589439      12.62632414       5.20407719  T
O       14.73038311      12.62616088       5.26801176  T
Mg      14.73052250      14.73084943       5.20540893  T
O       12.62585469      14.73067662       5.26800380  T
Fe       8.40649945       8.22217882      10.89393568  T
Fe       5.69289363       8.90045114      10.86140503  T
Fe       8.26118135       6.34998689      12.83857611  T
Fe       9.38600523       9.28189971       8.94246422  T
Fe       9.33755360      10.73545342      11.18992312  T
Fe       8.99206746       5.50693326      10.66001681  T
Fe       7.33214701      10.54878010       9.79519608  T
Fe       6.64720987       6.53141245      10.67904169  T
Fe      10.64576448       7.15317293       9.61385456  T
Fe       9.20089288       8.86889636      13.14332214  T
Fe       6.79742512       8.39945273       8.75982429  T
Fe       6.64383169       8.02629167      12.94076789  T
Fe       8.43904981       6.74536016       8.64717272  T
Fe       7.23090084      10.31968400      12.34724947  T
Fe      10.96394605       9.06299890      11.11346178  T
Fe      10.54059375       6.90237790      12.16290889  T
208
Lattice="16.835164897366493 0.0 0.0 0.0 16.835164897366493 0.0 0.0 0.0 25.208791224341624" Properties=species:S:1:pos:R:3:move_mask:L:1 name=MgO100 n_fixed_layers=1 isomer=B2 support=MgO100 energy=-1265.8392308173616 pbc="T T T"
Mg       0.00000000       0.00000000       1.00000000  F
O        2.10439561       0.00000000       1.00000000  F
Mg      -0.00126329       2.10524101       3.11774650  T
O        2.10436827       2.10545488       3.11748572  T
Mg       2.10343648       0.00100245       3.11879923  T
O       -0.00158970       0.00023430       3.11747154  T
Mg       2.10439561       2.10439561       1.00000000  F
O        0.00000000       2.10439561       1.00000000  F
Mg      -0.00153402       0.00206689       5.20277005  T
O        2.10290713       0.00147256       5.26685201  T
Mg       2.10253011       2.10576960       5.20312584  T
O       -0.00167702       2.10578952       5.26418631  T
Mg       0.00000000       4.20879122       1.00000000  F
O        2.10439561       4.20879122       1.00000000  F
Mg      -0.00131812       6.31353794       3.11938382  T
O        2.10358110       6.31405433       3.11886707  T
Mg       2.10312900       4.20915611       3.11840174  T
O       -0.00129584       4.21054414       3.11828947  T
Mg       2.10439561       6.31318684       1.00000000  F
O        0.00000000       6.31318684       1.00000000  F
Mg      -0.00173001       4.20901045       5.20497707  T
O        2.10268994       4.20966580       5.26836111  T
Mg       2.10294986       6.31270958       5.20537513  T
O       -0.00196945       6.31364014       5.26966215  T
Mg       0.00000000       8.41758245       1.00000000  F
O        2.10439561       8.41758245       1.00000000  F
Mg      -0.00120193      10.52161741       3.11900001  T
O        2.10375484      10.52189217       3.11819537  T
Mg       2.10309514       8.41717395       3.11933664  T
O       -0.00132484       8.41748873       3.11977982  T
Mg       2.10439561      10.52197806       1.00000000  F
O        0.00000000      10.52197806       1.00000000  F
Mg      -0.00180135       8.41743021       5.20625553  T
O        2.10340415       8.41786348       5.26923044  T
Mg       2.10251421      10.52227282       5.20457131  T
O       -0.00184025      10.52220777       5.26806488  T
Mg       0.00000000      12.62637367       1.00000000  F
O        2.10439561      12.62637367       1.00000000  F
Mg      -0.00134618      14.73218441       3.11913868  T
O        2.10369196      14.73098508       3.11889078  T
Mg       2.10309427      12.62773342       3.11864376  T
O       -0.00116404      12.62653332       3.11883791  T
Mg       2.10439561      14.73076929       1.00000000  F
O        0.00000000      14.73076929       1.00000000  F
Mg      -0.00168362      12.62778505       5.20549263  T
O        2.10282986      12.62711484       5.26746971  T
Mg       2.10281721      14.73276292       5.20526028  T
O       -0.00181195      14.73159419       5.26835930  T
Mg       4.20879122       0.00000000       1.00000000  F
O        6.31318684       0.00000000       1.00000000  F
Mg       4.20817318       2.10511539       3.11876471  T
O        6.31320433       2.10547650       3.11898099  T
Mg       6.31249561       0.00082021       3.11945329  T
O        4.20902515       0.00088849       3.11885821  T
Mg       6.31318684       2.10439561       1.00000000  F
O        4.20879122       2.10439561       1.00000000  F
Mg       4.20627292       0.00186776       5.20618434  T
O        6.31196073       0.00151205       5.26907465  T
Mg       6.31186718       2.10592984       5.20497779  T
O        4.20780434       2.10612643       5.26883328  T
Mg       4.20879122       4.20879122       1.00000000  F
O        6.31318684       4.20879122       1.00000000  F
Mg       4.20844197       6.31336620       3.11798889  T
O        6.31193511       6.31351407       3.11479398  T
Mg       6.31217781       4.20995465       3.11845830  T
O        4.20812351       4.20966079       3.11798743  T
Mg       6.31318684       6.31318684       1.00000000  F
O        4.20879122       6.31318684       1.00000000  F
Mg       4.20719729       4.20981666       5.20402857  T
O        6.31138776       4.20915046       5.26717848  T
Mg       6.31092174       6.31357119       5.20392370  T
O        4.20600617       6.31306251       5.26690278  T
Mg       4.20879122       8.41758245       1.00000000  F
O        6.31318684       8.41758245       1.00000000  F
Mg       4.20856590      10.52185595       3.11807106  T
O        6.31413681      10.52370561       3.11667214  T
Mg       6.31186355       8.41737653       3.11540719  T
O        4.20632847       8.41822940       3.11579424  T
Mg       6.31318684      10.52197806       1.00000000  F
O        4.20879122      10.52197806       1.00000000  F
Mg       4.20767223       8.41682442       5.20167715  T
O        6.30936009       8.41851414       5.25867456  T
Mg       6.30626930      10.52253574       5.20526301  T
O        4.20589513      10.52317383       5.26676740  T
Mg       4.20879122      12.62637367       1.00000000  F
O        6.31318684      12.62637367       1.00000000  F
Mg       4.20775619      14.73214254       3.11886110  T
O        6.31340198      14.73151018       3.11957119  T
Mg       6.31225783      12.62689974       3.11962530  T
O        4.20839385      12.62642445       3.11806676  T
Mg       6.31318684      14.73076929       1.00000000  F
O        4.20879122      14.73076929       1.00000000  F
Mg       4.20688056      12.62819895       5.20317930  T
O        6.31176426      12.62759001       5.26880709  T
Mg       6.31073822      14.73260469       5.20595435  T
O        4.20692308      14.73271494       5.26857192  T
Mg       8.41758245       0.00000000       1.00000000  F
O       10.52197806       0.00000000       1.00000000  F
Mg       8.41698785       2.10521523       3.11954352  T
O       10.52105048       2.10604370       3.11856542  T
Mg      10.52142140       0.00086081       3.11891142  T
O        8.41750157       0.00047160       3.11936318  T
Mg      10.52197806       2.10439561       1.00000000  F
O        8.41758245       2.10439561       1.00000000  F
Mg       8.41704236       0.00225017       5.20687276  T
O       10.52177974       0.00154500       5.26841746  T
Mg      10.52123565       2.10654968       5.20449200  T
O        8.41718655       2.10627561       5.26961639  T
Mg       8.41758245       4.20879122       1.00000000  F
O       10.52197806       4.20879122       1.00000000  F
Mg       8.41583083       6.31341764       3.11488321  T
O       10.52115410       6.31415352       3.11469920  T
Mg      10.52093874       4.21056296       3.11819665  T
O        8.41692103       4.20801640       3.11622662  T
Mg      10.52197806       6.31318684       1.00000000  F
O        8.41758245       6.31318684       1.00000000  F
Mg       8.41550283       4.21075764       5.20252626  T
O       10.52036632       4.21032694       5.26718255  T
Mg      10.52051431       6.31232725       5.20132568  T
O        8.41526255       6.31299933       5.25873372  T
Mg       8.41758245       8.41758245       1.00000000  F
O       10.52197806       8.41758245       1.00000000  F
Mg       8.41595538      10.52235169       3.11136391  T
O       10.51885533      10.52294919       3.11621083  T
Mg      10.52114355       8.41746011       3.11397224  T
O        8.41713384       8.42025806       3.11072184  T
Mg      10.52197806      10.52197806       1.00000000  F
O        8.41758245      10.52197806       1.00000000  F
Mg       8.41347665       8.41161676       5.20603712  T
O       10.52192733       8.41815076       5.26136529  T
Mg      10.52488805      10.52393591       5.20391859  T
O        8.41585251      10.52396592       5.27739054  T
Mg       8.41758245      12.62637367       1.00000000  F
O       10.52197806      12.62637367       1.00000000  F
Mg       8.41680503      14.73205737       3.12018834  T
O       10.52063969      14.73137689       3.11870730  T
Mg      10.52084387      12.62662627       3.11894771  T
O        8.41660155      12.62576908       3.11850937  T
Mg      10.52197806      14.73076929       1.00000000  F
O        8.41758245      14.73076929       1.00000000  F
Mg       8.41576127      12.63195392       5.20520249  T
O       10.52022870      12.62706086       5.26675158  T
Mg      10.52232376      14.73225553       5.20475914  T
O        8.41692824      14.73185254       5.27140891  T
Mg      12.62637367       0.00000000       1.00000000  F
O       14.73076929       0.00000000       1.00000000  F
Mg      12.62538787       2.10579686       3.11849697  T
O       14.72830148       2.10550973       3.11804954  T
Mg      14.72973050       0.00087902       3.11905578  T
O       12.62465010       0.00089544       3.11897187  T
Mg      14.73076929       2.10439561       1.00000000  F
O       12.62637367       2.10439561       1.00000000  F
Mg      12.62601277       0.00185010       5.20624176  T
O       14.72870989       0.00154403       5.26838401  T
Mg      14.72951010       2.10615567       5.20401754  T
O       12.62431118       2.10691080       5.26868621  T
Mg      12.62637367       4.20879122       1.00000000  F
O       14.73076929       4.20879122       1.00000000  F
Mg      12.62501402       6.31381570       3.11856723  T
O       14.72934957       6.31445050       3.11913592  T
Mg      14.72973278       4.20985178       3.11901341  T
O       12.62468057       4.21039083       3.11794082  T
Mg      14.73076929       6.31318684       1.00000000  F
O       12.62637367       6.31318684       1.00000000  F
Mg      12.62490706       4.21125805       5.20396168  T
O       14.72921800       4.20979417       5.26874102  T
Mg      14.72835380       6.31308421       5.20599783  T
O       12.62477190       6.31342579       5.26811422  T
Mg      12.62637367       8.41758245       1.00000000  F
O       14.73076929       8.41758245       1.00000000  F
Mg      12.62504642      10.52172014       3.11822729  T
O       14.72958895      10.52161514       3.11823802  T
Mg      14.72977595       8.41738038       3.11969863  T
O       12.62586962       8.41816389       3.11636038  T
Mg      14.73076929      10.52197806       1.00000000  F
O       12.62637367      10.52197806       1.00000000  F
Mg      12.62525360       8.41674985       5.20318151  T
O       14.72801576       8.41800994       5.27092720  T
Mg      14.72911306      10.52238299       5.20479218  T
O       12.62600236      10.52350129       5.26538055  T
Mg      12.62637367      12.62637367       1.00000000  F
O       14.73076929      12.62637367       1.00000000  F
Mg      12.62593849      14.73169629       3.11830085  T
O       14.72886910      14.73106351       3.11916736  T
Mg      14.72983143      12.62720681       3.11907678  T
O       12.62474015      12.62617440       3.11735691  T
Mg      14.73076929      14.73076929       1.00000000  F
O       12.62637367      14.73076929       1.00000000  F
Mg      12.62528120      12.62738997       5.20207183  T
O       14.72920222      12.62718935       5.26789606  T
Mg      14.72920513      14.73235741       5.20647906  T
O       12.62535867      14.73208559       5.26793169  T
Fe       8.19309810      11.33484209      10.74228801  T
Fe       9.78276245      10.68510209      12.47714395  T
Fe       6.04047893       7.87511346      11.41705717  T
Fe      10.49678515      10.37898678      10.16069255  T
Fe       7.65155735       7.45657907       9.30835911  T
Fe       8.46479687       9.84597819       8.68291567  T
Fe      11.00988765       8.40994088      11.72147863  T
Fe       7.18321565       9.97045899      12.68610847  T
Fe       7.31223764       7.51868257      13.47110337  T
Fe       7.61757944       5.99893340      11.41963620  T
Fe       9.34199314       8.83083659      13.82163791  T
Fe       8.61739638       8.61223557      11.22506402  T
Fe       9.84614876       6.36147991      10.47253456  T
Fe       6.47152658       9.74360268      10.09056341  T
Fe       9.62862484       6.58480254      12.89782032  T
Fe      10.22862515       8.20450924       9.10518093  T
208
Lattice="16.835164897366493 0.0 0.0 0.0 16.835164897366493 0.0 0.0 0.0 25.208791224341624" Properties=species:S:1:pos:R:3:move_mask:L:1 name=MgO100 n_fixed_layers=1 isomer=B3 support=MgO100 energy=-1265.837895918164 pbc="T T T"
Mg       0.00000000       0.00000000       1.00000000  F
O        2.10439561       0.00000000       1.00000000  F
Mg       0.00006988       2.10405919       3.11719444  T
O        2.10525626       2.10389427       3.11829601  T
Mg       2.10478749      -0.00076220       3.11868523  T
O        0.00026783      -0.00156128       3.11867409  T
Mg       2.10439561       2.10439561       1.00000000  F
O        0.00000000       2.10439561       1.00000000  F
Mg       0.00002892      -0.00077426       5.20420249  T
O        2.10458264      -0.00039478       5.26866944  T
Mg       2.10482624       2.10372698       5.20460846  T
O       -0.00002450       2.10345937       5.26519244  T
Mg       0.00000000       4.20879122       1.00000000  F
O        2.10439561       4.20879122       1.00000000  F
Mg      -0.00014652       6.31341246       3.11974407  T
O        2.10528449       6.31248896       3.11915466  T
Mg       2.10485550       4.20863709       3.11864215  T
O        0.00010271       4.20916251       3.11799690  T
Mg       2.10439561       6.31318684       1.00000000  F
O        0.00000000       6.31318684       1.00000000  F
Mg       0.00006011       4.20792744       5.20419082  T
O        2.10481368       4.20783640       5.26773281  T
Mg       2.10509709       6.31132988       5.20544159  T
O        0.00039715       6.31255455       5.26847513  T
Mg       0.00000000       8.41758245       1.00000000  F
O        2.10439561       8.41758245       1.00000000  F
Mg      -0.00029682      10.52104688       3.11965162  T
O        2.10497492      10.52107967       3.11862466  T
Mg       2.10532964       8.41660202       3.12086039  T
O        0.00020877       8.41706935       3.12093845  T
Mg       2.10439561      10.52197806       1.00000000  F
O        0.00000000      10.52197806       1.00000000  F
Mg       0.00002372       8.41691516       5.20741475  T
O        2.10577596       8.41675411       5.27102470  T
Mg       2.10521828      10.52177708       5.20464236  T
O        0.00017277      10.52160719       5.26904895  T
Mg       0.00000000      12.62637367       1.00000000  F
O        2.10439561      12.62637367       1.00000000  F
Mg      -0.00016840      14.72941680       3.11901418  T
O        2.10478309      14.73010536       3.11935615  T
Mg       2.10493983      12.62542710       3.11902454  T
O        0.00000886      12.62571123       3.11988671  T
Mg       2.10439561      14.73076929       1.00000000  F
O        0.00000000      14.73076929       1.00000000  F
Mg      -0.00005604      12.62563131       5.20650424  T
O        2.10573260      12.62496438       5.26842718  T
Mg       2.10468833      14.72988539       5.20582239  T
O       -0.00007788      14.72968842       5.26962835  T
Mg       4.20879122       0.00000000       1.00000000  F
O        6.31318684       0.00000000       1.00000000  F
Mg       4.20976715       2.10415009       3.11889772  T
O        6.31328375       2.10418391       3.11943985  T
Mg       6.31356638      -0.00099273       3.11974522  T
O        4.20886432      -0.00089267       3.11910876  T
Mg       6.31318684       2.10439561       1.00000000  F
O        4.20879122       2.10439561       1.00000000  F
Mg       4.20897498      -0.00087936       5.20559826  T
O        6.31307950      -0.00142416       5.26859926  T
Mg       6.31336910       2.10369055       5.20504579  T
O        4.20975252       2.10458831       5.26847726  T
Mg       4.20879122       4.20879122       1.00000000  F
O        6.31318684       4.20879122       1.00000000  F
Mg       4.20941877       6.31257438       3.11979838  T
O        6.31351411       6.31441115       3.11606336  T
Mg       6.31384210       4.20902415       3.11934596  T
O        4.20929150       4.20886944       3.11805931  T
Mg       6.31318684       6.31318684       1.00000000  F
O        4.20879122       6.31318684       1.00000000  F
Mg       4.20894466       4.20777914       5.20381396  T
O        6.31339548       4.20740398       5.26751492  T
Mg       6.31309208       6.30726084       5.20616637  T
O        4.20946763       6.31153195       5.26959161  T
Mg       4.20879122       8.41758245       1.00000000  F
O        6.31318684       8.41758245       1.00000000  F
Mg       4.20965034      10.52085011       3.11972515  T
O        6.31354317      10.51943987       3.11663494  T
Mg       6.31338581       8.41665489       3.11347218  T
O        4.21099675       8.41647172       3.11917062  T
Mg       6.31318684      10.52197806       1.00000000  F
O        4.20879122      10.52197806       1.00000000  F
Mg       4.20620520       8.41625647       5.20552722  T
O        6.31263409       8.41586248       5.27515304  T
Mg       6.31276684      10.52586212       5.20507472  T
O        4.20912271      10.52109782       5.26669718  T
Mg       4.20879122      12.62637367       1.00000000  F
O        6.31318684      12.62637367       1.00000000  F
Mg       4.20961245      14.72976025       3.11882311  T
O        6.31332113      14.72946590       3.11905365  T
Mg       6.31390452      12.62510564       3.11942536  T
O        4.20976312      12.62541002       3.11767219  T
Mg       6.31318684      14.73076929       1.00000000  F
O        4.20879122      14.73076929       1.00000000  F
Mg       4.20857930      12.62553842       5.20374614  T
O        6.31275416      12.62502494       5.26934954  T
Mg       6.31342532      14.72907527       5.20588951  T
O        4.20903193      14.72899232       5.26836379  T
Mg       8.41758245       0.00000000       1.00000000  F
O       10.52197806       0.00000000       1.00000000  F
Mg       8.41783633       2.10405801       3.12031383  T
O       10.52236785       2.10417953       3.11964545  T
Mg      10.52197549      -0.00093096       3.11981833  T
O        8.41765646      -0.00062959       3.12003031  T
Mg      10.52197806       2.10439561       1.00000000  F
O        8.41758245       2.10439561       1.00000000  F
Mg       8.41795047      -0.00105495       5.20651922  T
O       10.52250827      -0.00158127       5.26859791  T
Mg      10.52264732       2.10410967       5.20564571  T
O        8.41796433       2.10447970       5.27107235  T
Mg       8.41758245       4.20879122       1.00000000  F
O       10.52197806       4.20879122       1.00000000  F
Mg       8.41799936       6.31228008       3.11451733  T
O       10.52214276       6.31323520       3.11557807  T
Mg      10.52195922       4.20868353       3.11918933  T
O        8.41776752       4.20840156       3.11688804  T
Mg      10.52197806       6.31318684       1.00000000  F
O        8.41758245       6.31318684       1.00000000  F
Mg       8.41860439       4.20817117       5.20376763  T
O       10.52267207       4.20840621       5.26888503  T
Mg      10.52419996       6.31018201       5.20139476  T
O        8.41833059       6.31004312       5.26054480  T
Mg       8.41758245       8.41758245       1.00000000  F
O       10.52197806       8.41758245       1.00000000  F
Mg       8.41833255      10.52198883       3.11432431  T
O       10.52206421      10.52117274       3.11536280  T
Mg      10.52252323       8.41742208       3.11430993  T
O        8.41656495       8.41706900       3.10939345  T
Mg      10.52197806      10.52197806       1.00000000  F
O        8.41758245      10.52197806       1.00000000  F
Mg       8.42258936       8.41677273       5.20453144  T
O       10.52481106       8.41664772       5.26262408  T
Mg      10.52337378      10.52215938       5.20530580  T
O        8.41758578      10.52252477       5.26164418  T
Mg       8.41758245      12.62637367       1.00000000  F
O       10.52197806      12.62637367       1.00000000  F
Mg       8.41773092      14.72954826       3.12014965  T
O       10.52193920      14.72943985       3.11923136  T
Mg      10.52140394      12.62521609       3.11939576  T
O        8.41731928      12.62558472       3.11700364  T
Mg      10.52197806      14.73076929       1.00000000  F
O        8.41758245      14.73076929       1.00000000  F
Mg       8.41782104      12.62449190       5.20443938  T
O       10.52254883      12.62565498       5.26865440  T
Mg      10.52193719      14.72893225       5.20652330  T
O        8.41732452      14.72803319       5.27002333  T
Mg      12.62637367       0.00000000       1.00000000  F
O       14.73076929       0.00000000       1.00000000  F
Mg      12.62590769       2.10431145       3.11887698  T
O       14.73016889       2.10413456       3.11819839  T
Mg      14.73034987      -0.00103964       3.11865127  T
O       12.62635081      -0.00085984       3.11904270  T
Mg      14.73076929       2.10439561       1.00000000  F
O       12.62637367       2.10439561       1.00000000  F
Mg      12.62660638      -0.00084084       5.20556065  T
O       14.73092671      -0.00022755       5.26864412  T
Mg      14.73049723       2.10397235       5.20392717  T
O       12.62606709       2.10437044       5.26822762  T
Mg      12.62637367       4.20879122       1.00000000  F
O       14.73076929       4.20879122       1.00000000  F
Mg      12.62647013       6.31313504       3.11911033  T
O       14.73051638       6.31249451       3.11917645  T
Mg      14.73047720       4.20885214       3.11843899  T
O       12.62627015       4.20869651       3.11802074  T
Mg      14.73076929       6.31318684       1.00000000  F
O       12.62637367       6.31318684       1.00000000  F
Mg      12.62672899       4.20782883       5.20445806  T
O       14.73077221       4.20797067       5.26740126  T
Mg      14.73047387       6.31196029       5.20572820  T
O       12.62701062       6.31102412       5.26780308  T
Mg      12.62637367       8.41758245       1.00000000  F
O       14.73076929       8.41758245       1.00000000  F
Mg      12.62577137      10.52090325       3.11930079  T
O       14.73024541      10.52135964       3.11909964  T
Mg      14.73015831       8.41674555       3.12060978  T
O       12.62616490       8.41698755       3.11755111  T
Mg      14.73076929      10.52197806       1.00000000  F
O       12.62637367      10.52197806       1.00000000  F
Mg      12.62635591       8.41692496       5.20562719  T
O       14.72957480       8.41677953       5.27084648  T
Mg      14.72995162      10.52151397       5.20562336  T
O       12.62577139      10.52160580       5.26892386  T
Mg      12.62637367      12.62637367       1.00000000  F
O       14.73076929      12.62637367       1.00000000  F
Mg      12.62558827      14.72933135       3.11929202  T
O       14.73041589      14.72964565       3.11961132  T
Mg      14.73009251      12.62533894       3.11937414  T
O       12.62574672      12.62544298       3.11826721  T
Mg      14.73076929      14.73076929       1.00000000  F
O       12.62637367      14.73076929       1.00000000  F
Mg      12.62635593      12.62517902       5.20507670  T
O       14.72978078      12.62501457       5.26902736  T
Mg      14.73035159      14.72978659       5.20625888  T
O       12.62668453      14.72926235       5.26862851  T
Fe       7.76588350       7.18264607      13.36138049  T
Fe       7.47646188      10.96466385      11.70774025  T
Fe      10.16530812       7.22396073      12.92255959  T
Fe       7.88506740      10.45827617       9.23111382  T
Fe       6.45220565       6.97164902      11.01130915  T
Fe       9.07731698       9.54755741      13.14146785  T
Fe       8.44870347       6.40028703       9.29649365  T
Fe       8.43182129       8.41376333      11.04754816  T
Fe       9.73314854      10.75083746      10.80333132  T
Fe       8.58036971       5.67404986      11.61992736  T
Fe       7.09417692       8.20360071       8.70542624  T
Fe      11.05751203       8.92969558      11.41827694  T
Fe       9.78328860       8.72973529       9.04856368  T
Fe      10.58867195       6.73403293      10.43826837  T
Fe       5.88761559       9.40450035      10.43655101  T
Fe       6.45634241       9.02123899      12.78234906  T
208
Lattice="16.835164897366493 0.0 0.0 0.0 16.835164897366493 0.0 0.0 0.0 25.208791224341624" Properties=species:S:1:pos:R:3:move_mask:L:1 name=MgO100 n_fixed_layers=1 isomer=B4 support=MgO100 energy=-1265.8453728551901 pbc="T T T"
Mg       0.00000000       0.00000000       1.00000000  F
O        2.10439561       0.00000000       1.00000000  F
Mg      -0.00055417       2.10372175       3.12194469  T
O        2.10433837       2.10404808       3.12103215  T
Mg       2.10363220      -0.00038548       3.12098444  T
O       -0.00049130      -0.00033170       3.12222819  T
Mg       2.10439561       2.10439561       1.00000000  F
O        0.00000000       2.10439561       1.00000000  F
Mg       0.00018540      -0.00114637       5.21109477  T
O        2.10494148      -0.00116536       5.27218383  T
Mg       2.10458540       2.10320422       5.20909639  T
O        0.00034068       2.10415832       5.27389850  T
Mg       0.00000000       4.20879122       1.00000000  F
O        2.10439561       4.20879122       1.00000000  F
Mg      -0.00011156       6.31251896       3.12038371  T
O        2.10509815       6.31322317       3.11956777  T
Mg       2.10374357       4.20764697       3.12009452  T
O       -0.00020714       4.20836369       3.12116648  T
Mg       2.10439561       6.31318684       1.00000000  F
O        0.00000000       6.31318684       1.00000000  F
Mg       0.00009835       4.20802810       5.20990094  T
O        2.10531275       4.20906600       5.27009007  T
Mg       2.10513639       6.31221157       5.20597696  T
O        0.00022969       6.31312955       5.27045881  T
Mg       0.00000000       8.41758245       1.00000000  F
O        2.10439561       8.41758245       1.00000000  F
Mg      -0.00018608      10.52123758       3.11947990  T
O        2.10513244      10.52019443       3.11888374  T
Mg       2.10489215       8.41671034       3.11991748  T
O       -0.00007172       8.41665987       3.11991717  T
Mg       2.10439561      10.52197806       1.00000000  F
O        0.00000000      10.52197806       1.00000000  F
Mg      -0.00064424       8.41687452       5.20764245  T
O        2.10642056       8.41695171       5.27000998  T
Mg       2.10504238      10.52176708       5.20466221  T
O        0.00002306      10.52048876       5.26834927  T
Mg       0.00000000      12.62637367       1.00000000  F
O        2.10439561      12.62637367       1.00000000  F
Mg      -0.00045432      14.73086627       3.12029166  T
O        2.10419323      14.73067306       3.11987123  T
Mg       2.10398868      12.62613753       3.11858726  T
O       -0.00010561      12.62577737       3.11898616  T
Mg       2.10439561      14.73076929       1.00000000  F
O        0.00000000      14.73076929       1.00000000  F
Mg      -0.00014675      12.62523610       5.20623355  T
O        2.10501928      12.62423729       5.26775401  T
Mg       2.10433309      14.72960955       5.20686117  T
O        0.00017708      14.72858105       5.27093831  T
Mg       4.20879122       0.00000000       1.00000000  F
O        6.31318684       0.00000000       1.00000000  F
Mg       4.20844798       2.10360287       3.11998484  T
O        6.31352612       2.10377653       3.11913187  T
Mg       6.31294599      -0.00067657       3.12012830  T
O        4.20881141      -0.00046480       3.11987703  T
Mg       6.31318684       2.10439561       1.00000000  F
O        4.20879122       2.10439561       1.00000000  F
Mg       4.20860950      -0.00112316       5.20860129  T
O        6.31368417      -0.00060391       5.27027521  T
Mg       6.31312650       2.10349202       5.20575216  T
O        4.20967987       2.10396996       5.27053681  T
Mg       4.20879122       4.20879122       1.00000000  F
O        6.31318684       4.20879122       1.00000000  F
Mg       4.20894399       6.31220145       3.11992019  T
O        6.31389177       6.31484027       3.11747592  T
Mg       6.31317629       4.20857435       3.11889418  T
O        4.20856492       4.20873415       3.11852315  T
Mg       6.31318684       6.31318684       1.00000000  F
O        4.20879122       6.31318684       1.00000000  F
Mg       4.20882984       4.20793951       5.20386576  T
O        6.31340892       4.20684871       5.26571649  T
Mg       6.30996331       6.30607170       5.20415707  T
O        4.20943358       6.31239800       5.26803164  T
Mg       4.20879122       8.41758245       1.00000000  F
O        6.31318684       8.41758245       1.00000000  F
Mg       4.20937131      10.52160574       3.11983730  T
O        6.31286380      10.51956884       3.11681409  T
Mg       6.31360008       8.41722868       3.11327470  T
O        4.21051227       8.41682498       3.11924300  T
Mg       6.31318684      10.52197806       1.00000000  F
O        4.20879122      10.52197806       1.00000000  F
Mg       4.20476261       8.41726233       5.20550130  T
O        6.31126796       8.41673841       5.27558421  T
Mg       6.31300577      10.52697075       5.20456067  T
O        4.20976432      10.52142185       5.26711846  T
Mg       4.20879122      12.62637367       1.00000000  F
O        6.31318684      12.62637367       1.00000000  F
Mg       4.20865021      14.73074114       3.11945445  T
O        6.31387569      14.72995075       3.11999406  T
Mg       6.31362664      12.62560079       3.11951176  T
O        4.20933039      12.62570989       3.11834681  T
Mg       6.31318684      14.73076929       1.00000000  F
O        4.20879122      14.73076929       1.00000000  F
Mg       4.20895933      12.62497596       5.20326951  T
O        6.31319613      12.62577730       5.26773861  T
Mg       6.31349939      14.72971871       5.20657926  T
O        4.20981621      14.72890017       5.26935765  T
Mg       8.41758245       0.00000000       1.00000000  F
O       10.52197806       0.00000000       1.00000000  F
Mg       8.41760276       2.10406424       3.11985460  T
O       10.52188874       2.10400103       3.11850794  T
Mg      10.52255970      -0.00062151       3.11957958  T
O        8.41777402      -0.00016388       3.11952246  T
Mg      10.52197806       2.10439561       1.00000000  F
O        8.41758245       2.10439561       1.00000000  F
Mg       8.41785846      -0.00067802       5.20696579  T
O       10.52230809      -0.00051341       5.26825229  T
Mg      10.52251122       2.10353398       5.20526112  T
O        8.41785914       2.10443714       5.26942676  T
Mg       8.41758245       4.20879122       1.00000000  F
O       10.52197806       4.20879122       1.00000000  F
Mg       8.41906591       6.31228411       3.11439987  T
O       10.52160043       6.31198845       3.11457252  T
Mg      10.52271940       4.20826337       3.11913496  T
O        8.41788242       4.20837430       3.11775122  T
Mg      10.52197806       6.31318684       1.00000000  F
O        8.41758245       6.31318684       1.00000000  F
Mg       8.41873778       4.20539775       5.20244320  T
O       10.52189945       4.20787259       5.26773253  T
Mg      10.52550385       6.31066564       5.20616555  T
O        8.41754169       6.30954223       5.26586736  T
Mg       8.41758245       8.41758245       1.00000000  F
O       10.52197806       8.41758245       1.00000000  F
Mg       8.41843597      10.52187891       3.11545094  T
O       10.52205454      10.52189394       3.11512073  T
Mg      10.52252986       8.41682866       3.11517925  T
O        8.41610979       8.41573277       3.11163695  T
Mg      10.52197806      10.52197806       1.00000000  F
O        8.41758245      10.52197806       1.00000000  F
Mg       8.42229249       8.41964137       5.21340246  T
O       10.52468847       8.41681352       5.26057526  T
Mg      10.52290224      10.52283746       5.20145982  T
O        8.41768717      10.52390524       5.25953802  T
Mg       8.41758245      12.62637367       1.00000000  F
O       10.52197806      12.62637367       1.00000000  F
Mg       8.41750765      14.73050510       3.11993375  T
O       10.52161194      14.73018289       3.11890273  T
Mg      10.52221620      12.62588423       3.11897230  T
O        8.41774552      12.62682440       3.11687484  T
Mg      10.52197806      14.73076929       1.00000000  F
O        8.41758245      14.73076929       1.00000000  F
Mg       8.41873117      12.62550143       5.20382098  T
O       10.52266919      12.62543643       5.26758876  T
Mg      10.52222804      14.72982345       5.20544247  T
O        8.41824508      14.72889020       5.26972242  T
Mg      12.62637367       0.00000000       1.00000000  F
O       14.73076929       0.00000000       1.00000000  F
Mg      12.62713373       2.10394636       3.11991716  T
O       14.73095037       2.10445110       3.12163458  T
Mg      14.73116713      -0.00016619       3.12123266  T
O       12.62687188      -0.00026718       3.12018675  T
Mg      14.73076929       2.10439561       1.00000000  F
O       12.62637367       2.10439561       1.00000000  F
Mg      12.62650741      -0.00103226       5.20748607  T
O       14.73037510      -0.00125262       5.27358313  T
Mg      14.73099162       2.10383141       5.21015578  T
O       12.62593889       2.10410150       5.27025114  T
Mg      12.62637367       4.20879122       1.00000000  F
O       14.73076929       4.20879122       1.00000000  F
Mg      12.62637158       6.31214383       3.11891818  T
O       14.73041858       6.31334028       3.11976564  T
Mg      14.73087321       4.20828103       3.12071635  T
O       12.62696838       4.20814471       3.11862282  T
Mg      14.73076929       6.31318684       1.00000000  F
O       12.62637367       6.31318684       1.00000000  F
Mg      12.62579138       4.20811101       5.20491662  T
O       14.73030528       4.20902077       5.27130047  T
Mg      14.73029057       6.31279483       5.20692297  T
O       12.62646795       6.31245079       5.26757482  T
Mg      12.62637367       8.41758245       1.00000000  F
O       14.73076929       8.41758245       1.00000000  F
Mg      12.62626475      10.52110045       3.11890905  T
O       14.73035061      10.52024485       3.11912888  T
Mg      14.73007422       8.41683271       3.12051711  T
O       12.62748187       8.41669326       3.11739406  T
Mg      14.73076929      10.52197806       1.00000000  F
O       12.62637367      10.52197806       1.00000000  F
Mg      12.62687291       8.41675881       5.20343852  T
O       14.72978464       8.41690438       5.27084207  T
Mg      14.73010375      10.52112975       5.20634946  T
O       12.62574779      10.52076167       5.26883686  T
Mg      12.62637367      12.62637367       1.00000000  F
O       14.73076929      12.62637367       1.00000000  F
Mg      12.62682967      14.73035049       3.11884625  T
O       14.73092587      14.73016087       3.12009346  T
Mg      14.73053135      12.62563613       3.11928216  T
O       12.62623409      12.62550524       3.11805938  T
Mg      14.73076929      14.73076929       1.00000000  F
O       12.62637367      14.73076929       1.00000000  F
Mg      12.62587659      12.62475710       5.20380741  T
O       14.73034374      12.62411796       5.26814311  T
Mg      14.73102141      14.72882791       5.20703287  T
O       12.62560624      14.72881508       5.26782943  T
Fe      10.20418063      10.36501993      11.30767533  T
Fe      10.74122122       8.37747497       9.98245484  T
Fe       8.99145022       9.65941356      13.45901526  T
Fe       9.10310125       7.30920217       8.73516001  T
Fe       6.22372221       9.86269095      10.38535757  T
Fe       8.66494932       9.95463170       9.30305387  T
Fe       7.38767641       5.99034263       9.82757649  T
Fe      10.76512371       8.12163376      12.41312566  T
Fe       8.77054875       7.23002949      13.51364354  T
Fe       6.64447765       8.78818922      12.84185958  T
Fe       9.57879184       6.22773812      11.14697688  T
Fe       8.30521238       8.32250568      11.07932361  T
Fe       5.62610419       7.54728072      10.82853928  T
Fe       7.84597962      10.90427342      11.70241425  T
Fe       7.10234143       6.21061613      12.24375647  T
Fe       6.84476756       8.23306464       8.67833174  T
208
Lattice="16.835164897366493 0.0 0.0 0.0 16.835164897366493 0.0 0.0 0.0 25.208791224341624" Properties=species:S:1:pos:R:3:move_mask:L:1 name=MgO100 n_fixed_layers=1 isomer=B5 support=MgO100 energy=-1265.853728464349 pbc="T T T"
Mg       0.00000000       0.00000000       1.00000000  F
O        2.10439561       0.00000000       1.00000000  F
Mg       0.00018185       2.10458884       3.11858465  T
O        2.10428461       2.10454700       3.11832330  T
Mg       2.10421331       0.00046421       3.11872028  T
O        0.00024307       0.00066818       3.11907523  T
Mg       2.10439561       2.10439561       1.00000000  F
O        0.00000000       2.10439561       1.00000000  F
Mg       0.00006249       0.00031710       5.20496093  T
O        2.10484831       0.00048391       5.26787067  T
Mg       2.10417290       2.10442529       5.20495673  T
O        0.00018471       2.10485137       5.26805885  T
Mg       0.00000000       4.20879122       1.00000000  F
O        2.10439561       4.20879122       1.00000000  F
Mg       0.00016772       6.31398542       3.11917949  T
O        2.10473552       6.31400097       3.11831089  T
Mg       2.10410766       4.20901051       3.11890254  T
O        0.00014715       4.20939094       3.11880045  T
Mg       2.10439561       6.31318684       1.00000000  F
O        0.00000000       6.31318684       1.00000000  F
Mg       0.00026441       4.20933505       5.20521019  T
O        2.10479587       4.20933855       5.26704861  T
Mg       2.10467155       6.31405238       5.20489074  T
O        0.00026817       6.31391156       5.26948866  T
Mg       0.00000000       8.41758245       1.00000000  F
O        2.10439561       8.41758245       1.00000000  F
Mg       0.00013079      10.52147860       3.11911942  T
O        2.10442894      10.52177626       3.11806430  T
Mg       2.10406428       8.41801132       3.11889109  T
O        0.00012640       8.41772325       3.11956629  T
Mg       2.10439561      10.52197806       1.00000000  F
O        0.00000000      10.52197806       1.00000000  F
Mg       0.00026396       8.41783952       5.20699269  T
O        2.10527581       8.41811636       5.26835751  T
Mg       2.10460063      10.52255882       5.20481567  T
O        0.00027252      10.52199434       5.26927437  T
Mg       0.00000000      12.62637367       1.00000000  F
O        2.10439561      12.62637367       1.00000000  F
Mg       0.00017084      14.73133859       3.11865124  T
O        2.10419512      14.73158151       3.11852645  T
Mg       2.10391785      12.62685120       3.11881128  T
O        0.00017323      12.62609806       3.11900056  T
Mg       2.10439561      14.73076929       1.00000000  F
O        0.00000000      14.73076929       1.00000000  F
Mg       0.00019324      12.62656177       5.20510538  T
O        2.10471875      12.62687859       5.26750456  T
Mg       2.10406314      14.73147630       5.20511122  T
O        0.00008780      14.73113837       5.26802748  T
Mg       4.20879122       0.00000000       1.00000000  F
O        6.31318684       0.00000000       1.00000000  F
Mg       4.20879998       2.10455662       3.11871038  T
O        6.31422020       2.10473061       3.11860367  T
Mg       6.31387354       0.00025983       3.11912381  T
O        4.20943670       0.00049240       3.11883484  T
Mg       6.31318684       2.10439561       1.00000000  F
O        4.20879122       2.10439561       1.00000000  F
Mg       4.20901758       0.00051673       5.20494605  T
O        6.31344339       0.00071504       5.26982604  T
Mg       6.31284515       2.10493466       5.20519438  T
O        4.20882473       2.10513601       5.26724500  T
Mg       4.20879122       4.20879122       1.00000000  F
O        6.31318684       4.20879122       1.00000000  F
Mg       4.20864801       6.31291027       3.11865845  T
O        6.31457915       6.31214470       3.11755251  T
Mg       6.31280053       4.20884659       3.11973007  T
O        4.20891661       4.20918346       3.11785141  T
Mg       6.31318684       6.31318684       1.00000000  F
O        4.20879122       6.31318684       1.00000000  F
Mg       4.20851634       4.20892807       5.20420126  T
O        6.31327123       4.20910820       5.26841786  T
Mg       6.30750564       6.31304325       5.20435496  T
O        4.20823572       6.31325519       5.26841843  T
Mg       4.20879122       8.41758245       1.00000000  F
O        6.31318684       8.41758245       1.00000000  F
Mg       4.20837728      10.52316406       3.11801179  T
O        6.31307921      10.52353531       3.11570745  T
Mg       6.31219100       8.41810951       3.11493491  T
O        4.20759028       8.41769019       3.11550603  T
Mg       6.31318684      10.52197806       1.00000000  F
O        4.20879122      10.52197806       1.00000000  F
Mg       4.20854711       8.41873766       5.20058122  T
O        6.31082206       8.41810630       5.25752394  T
Mg       6.31022646      10.52353516       5.20101370  T
O        4.20793747      10.52352719       5.26635428  T
Mg       4.20879122      12.62637367       1.00000000  F
O        6.31318684      12.62637367       1.00000000  F
Mg       4.20878030      14.73138033       3.11897593  T
O        6.31381680      14.73148701       3.11871863  T
Mg       6.31296827      12.62740074       3.11881692  T
O        4.20850021      12.62698517       3.11760048  T
Mg       6.31318684      14.73076929       1.00000000  F
O        4.20879122      14.73076929       1.00000000  F
Mg       4.20881468      12.62720658       5.20416128  T
O        6.31275960      12.62701362       5.26766089  T
Mg       6.31327861      14.73137455       5.20545642  T
O        4.20893351      14.73123625       5.26745906  T
Mg       8.41758245       0.00000000       1.00000000  F
O       10.52197806       0.00000000       1.00000000  F
Mg       8.41780173       2.10489445       3.11942965  T
O       10.52123764       2.10470195       3.11848100  T
Mg      10.52143059       0.00016080       3.11921985  T
O        8.41769094       0.00054120       3.11944017  T
Mg      10.52197806       2.10439561       1.00000000  F
O        8.41758245       2.10439561       1.00000000  F
Mg       8.41769461       0.00066344       5.20711173  T
O       10.52192629       0.00061745       5.26978599  T
Mg      10.52299124       2.10485666       5.20506009  T
O        8.41781438       2.10561029       5.26912327  T
Mg       8.41758245       4.20879122       1.00000000  F
O       10.52197806       4.20879122       1.00000000  F
Mg       8.41791564       6.31270009       3.11374468  T
O       10.52089731       6.31222691       3.11735765  T
Mg      10.52291497       4.20892431       3.11968345  T
O        8.41784068       4.21062924       3.11881595  T
Mg      10.52197806       6.31318684       1.00000000  F
O        8.41758245       6.31318684       1.00000000  F
Mg       8.41823264       4.20518532       5.20436217  T
O       10.52262244       4.20922663       5.26872831  T
Mg      10.52803363       6.31307031       5.20588302  T
O        8.41786198       6.31202609       5.27692199  T
Mg       8.41758245       8.41758245       1.00000000  F
O       10.52197806       8.41758245       1.00000000  F
Mg       8.41783640      10.52312564       3.11382351  T
O       10.52224202      10.52357236       3.11563924  T
Mg      10.52320248       8.41818550       3.11511767  T
O        8.41758765       8.41601197       3.11148107  T
Mg      10.52197806      10.52197806       1.00000000  F
O        8.41758245      10.52197806       1.00000000  F
Mg       8.41782406       8.42138935       5.20729103  T
O       10.52473808       8.41834008       5.25772020  T
Mg      10.52499217      10.52362524       5.20323965  T
O        8.41768822      10.52564411       5.26195135  T
Mg       8.41758245      12.62637367       1.00000000  F
O       10.52197806      12.62637367       1.00000000  F
Mg       8.41773913      14.73125780       3.11925886  T
O       10.52155161      14.73147956       3.11873211  T
Mg      10.52262569      12.62741230       3.11890810  T
O        8.41780302      12.62713815       3.11716111  T
Mg      10.52197806      14.73076929       1.00000000  F
O        8.41758245      14.73076929       1.00000000  F
Mg       8.41801129      12.62864440       5.20396873  T
O       10.52279099      12.62712047       5.26859672  T
Mg      10.52235357      14.73140571       5.20567330  T
O        8.41762566      14.73090301       5.26906622  T
Mg      12.62637367       0.00000000       1.00000000  F
O       14.73076929       0.00000000       1.00000000  F
Mg      12.62666427       2.10437233       3.11862207  T
O       14.73125415       2.10458139       3.11835601  T
Mg      14.73124595       0.00049975       3.11871630  T
O       12.62584311       0.00049673       3.11878927  T
Mg      14.73076929       2.10439561       1.00000000  F
O       12.62637367       2.10439561       1.00000000  F
Mg      12.62649946       0.00049140       5.20487012  T
O       14.73071377       0.00051199       5.26759525  T
Mg      14.73134104       2.10438699       5.20498622  T
O       12.62686898       2.10491185       5.26734595  T
Mg      12.62637367       4.20879122       1.00000000  F
O       14.73076929       4.20879122       1.00000000  F
Mg      12.62676334       6.31305496       3.11857187  T
O       14.73091578       6.31384627       3.11822132  T
Mg      14.73130634       4.20892644       3.11896936  T
O       12.62660830       4.20892380       3.11775324  T
Mg      14.73076929       6.31318684       1.00000000  F
O       12.62637367       6.31318684       1.00000000  F
Mg      12.62703723       4.20886889       5.20402451  T
O       14.73086560       4.20932925       5.26750514  T
Mg      14.73107686       6.31413010       5.20482621  T
O       12.62780753       6.31333224       5.26729492  T
Mg      12.62637367       8.41758245       1.00000000  F
O       14.73076929       8.41758245       1.00000000  F
Mg      12.62692197      10.52310305       3.11808344  T
O       14.73113921      10.52194373       3.11805302  T
Mg      14.73128953       8.41802821       3.11896739  T
O       12.62783751       8.41783453       3.11579630  T
Mg      14.73076929      10.52197806       1.00000000  F
O       12.62637367      10.52197806       1.00000000  F
Mg      12.62691685       8.41884832       5.20076494  T
O       14.73043185       8.41811427       5.26855634  T
Mg      14.73110330      10.52251376       5.20492922  T
O       12.62801150      10.52358159       5.26626820  T
Mg      12.62637367      12.62637367       1.00000000  F
O       14.73076929      12.62637367       1.00000000  F
Mg      12.62658601      14.73143997       3.11886215  T
O       14.73130418      14.73152391       3.11834700  T
Mg      14.73141863      12.62686699       3.11879992  T
O       12.62684941      12.62708204       3.11766782  T
Mg      14.73076929      14.73076929       1.00000000  F
O       12.62637367      14.73076929       1.00000000  F
Mg      12.62670633      12.62724103       5.20425891  T
O       14.73095833      12.62690740       5.26747132  T
Mg      14.73132822      14.73149013       5.20476043  T
O       12.62680737      14.73146519       5.26731171  T
Fe       8.45566901       8.56061981      11.00659526  T
Fe       7.19152245       6.08202637      10.68280256  T
Fe       8.54047302       6.95966180       8.68951170  T
Fe      10.60662435       7.97888984       9.51593324  T
Fe      10.53124987       8.06078208      12.22248923  T
Fe       9.74971549       6.08538029      10.76876644  T
Fe       8.39913437       6.51403122      12.76318980  T
Fe       6.29467407       8.05454396      12.06456810  T
Fe       6.41809820       7.97122426       9.36628648  T
Fe       8.53349089       9.55250669       8.79572669  T
Fe       6.36894293      10.09471583      10.32099455  T
Fe       7.10475745      10.43666183      12.62189510  T
Fe       8.46148764      11.32999172      10.63768581  T
Fe       8.34453574       8.63768114      13.71678416  T
Fe       9.66808789      10.43474584      12.71927753  T
Fe      10.57747564      10.10457166      10.47791933  T
208
Lattice="16.835164897366493 0.0 0.0 0.0 16.835164897366493 0.0 0.0 0.0 25.208791224341624" Properties=species:S:1:pos:R:3:move_mask:L:1 name=MgO100 n_fixed_layers=1 isomer=B6 support=MgO100 energy=-1265.8539826974609 pbc="T T T"
Mg       0.00000000       0.00000000       1.00000000  F
O        2.10439561       0.00000000       1.00000000  F
Mg       0.00024916       2.10515071       3.11857562  T
O        2.10463823       2.10491207       3.11850080  T
Mg       2.10457916       0.00050189       3.11871840  T
O        0.00021239       0.00047863       3.11853346  T
Mg       2.10439561       2.10439561       1.00000000  F
O        0.00000000       2.10439561       1.00000000  F
Mg       0.00002144       0.00046069       5.20355218  T
O        2.10503012       0.00085553       5.26722313  T
Mg       2.10433396       2.10487475       5.20518104  T
O        0.00027129       2.10529087       5.26733909  T
Mg       0.00000000       4.20879122       1.00000000  F
O        2.10439561       4.20879122       1.00000000  F
Mg       0.00020979       6.31424286       3.11934262  T
O        2.10471061       6.31409554       3.11812954  T
Mg       2.10419913       4.20916894       3.11931426  T
O        0.00018683       4.21015750       3.11937122  T
Mg       2.10439561       6.31318684       1.00000000  F
O        0.00000000       6.31318684       1.00000000  F
Mg       0.00034312       4.20987986       5.20590818  T
O        2.10521622       4.20968801       5.26767522  T
Mg       2.10534804       6.31444913       5.20485337  T
O        0.00042034       6.31419747       5.26923807  T
Mg       0.00000000       8.41758245       1.00000000  F
O        2.10439561       8.41758245       1.00000000  F
Mg       0.00023093      10.52150384       3.11921317  T
O        2.10459891      10.52170396       3.11807959  T
Mg       2.10445925       8.41810224       3.11913757  T
O        0.00018314       8.41771015       3.11995608  T
Mg       2.10439561      10.52197806       1.00000000  F
O        0.00000000      10.52197806       1.00000000  F
Mg       0.00030733       8.41813220       5.20695604  T
O        2.10553947       8.41832142       5.26832350  T
Mg       2.10516609      10.52249543       5.20460579  T
O        0.00047745      10.52216645       5.26887164  T
Mg       0.00000000      12.62637367       1.00000000  F
O        2.10439561      12.62637367       1.00000000  F
Mg       0.00016188      14.73108192       3.11843320  T
O        2.10433973      14.73142737       3.11862713  T
Mg       2.10404740      12.62673644       3.11910256  T
O        0.00027888      12.62604613       3.11935008  T
Mg       2.10439561      14.73076929       1.00000000  F
O        0.00000000      14.73076929       1.00000000  F
Mg       0.00024532      12.62664907       5.20582379  T
O        2.10517423      12.62690489       5.26779310  T
Mg       2.10435223      14.73166298       5.20533996  T
O        0.00013310      14.73135840       5.26814639  T
Mg       4.20879122       0.00000000       1.00000000  F
O        6.31318684       0.00000000       1.00000000  F
Mg       4.20896222       2.10461222       3.11897913  T
O        6.31427465       2.10488856       3.11874457  T
Mg       6.31402423       0.00067917       3.11921350  T
O        4.20986423       0.00073728       3.11912961  T
Mg       6.31318684       2.10439561       1.00000000  F
O        4.20879122       2.10439561       1.00000000  F
Mg       4.20946238       0.00079730       5.20529222  T
O        6.31350480       0.00120968       5.26961902  T
Mg       6.31312944       2.10569007       5.20559264  T
O        4.20913029       2.10573981       5.26788301  T
Mg       4.20879122       4.20879122       1.00000000  F
O        6.31318684       4.20879122       1.00000000  F
Mg       4.20843950       6.31322897       3.11800456  T
O        6.31445326       6.31279880       3.11655662  T
Mg       6.31288147       4.20901682       3.11921335  T
O        4.20890732       4.20908180       3.11773085  T
Mg       6.31318684       6.31318684       1.00000000  F
O        4.20879122       6.31318684       1.00000000  F
Mg       4.20891424       4.20935811       5.20436873  T
O        6.31378939       4.20984204       5.26815042  T
Mg       6.30813827       6.31328809       5.20366942  T
O        4.20850301       6.31349911       5.26778397  T
Mg       4.20879122       8.41758245       1.00000000  F
O        6.31318684       8.41758245       1.00000000  F
Mg       4.20863978      10.52281791       3.11781815  T
O        6.31339403      10.52318453       3.11531404  T
Mg       6.31210563       8.41849965       3.11388966  T
O        4.20801591       8.41773267       3.11537431  T
Mg       6.31318684      10.52197806       1.00000000  F
O        4.20879122      10.52197806       1.00000000  F
Mg       4.20937349       8.41874947       5.20099019  T
O        6.31142630       8.41786579       5.25717966  T
Mg       6.31039933      10.52339493       5.20131771  T
O        4.20810200      10.52335184       5.26588021  T
Mg       4.20879122      12.62637367       1.00000000  F
O        6.31318684      12.62637367       1.00000000  F
Mg       4.20922577      14.73136672       3.11937009  T
O        6.31416232      14.73160122       3.11897669  T
Mg       6.31310405      12.62694977       3.11865882  T
O        4.20874307      12.62695785       3.11762097  T
Mg       6.31318684      14.73076929       1.00000000  F
O        4.20879122      14.73076929       1.00000000  F
Mg       4.20923260      12.62719775       5.20395620  T
O        6.31270022      12.62691313       5.26678005  T
Mg       6.31356169      14.73120869       5.20539969  T
O        4.20934226      14.73122169       5.26789959  T
Mg       8.41758245       0.00000000       1.00000000  F
O       10.52197806       0.00000000       1.00000000  F
Mg       8.41788672       2.10463959       3.11927309  T
O       10.52120357       2.10494233       3.11862378  T
Mg      10.52133114       0.00063685       3.11934680  T
O        8.41773779       0.00072886       3.11935945  T
Mg      10.52197806       2.10439561       1.00000000  F
O        8.41758245       2.10439561       1.00000000  F
Mg       8.41771984       0.00105103       5.20709085  T
O       10.52193215       0.00108864       5.26958619  T
Mg      10.52286909       2.10554064       5.20556523  T
O        8.41785383       2.10574341       5.26934373  T
Mg       8.41758245       4.20879122       1.00000000  F
O       10.52197806       4.20879122       1.00000000  F
Mg       8.41805955       6.31279571       3.11167064  T
O       10.52124784       6.31287746       3.11630111  T
Mg      10.52300908       4.20899762       3.11909165  T
O        8.41793316       4.21035225       3.11758337  T
Mg      10.52197806       6.31318684       1.00000000  F
O        8.41758245       6.31318684       1.00000000  F
Mg       8.41824531       4.20644070       5.20347481  T
O       10.52228753       4.20966652       5.26850341  T
Mg      10.52737350       6.31320287       5.20551089  T
O        8.41786033       6.31206941       5.27322790  T
Mg       8.41758245       8.41758245       1.00000000  F
O       10.52197806       8.41758245       1.00000000  F
Mg       8.41804123      10.52358053       3.11293595  T
O       10.52221282      10.52319623       3.11517861  T
Mg      10.52335043       8.41853666       3.11427022  T
O        8.41781286       8.41697050       3.11004148  T
Mg      10.52197806      10.52197806       1.00000000  F
O        8.41758245      10.52197806       1.00000000  F
Mg       8.41765268       8.42090240       5.20572950  T
O       10.52430546       8.41826354       5.25822761  T
Mg      10.52501404      10.52362159       5.20404571  T
O        8.41793150      10.52554919       5.26186169  T
Mg       8.41758245      12.62637367       1.00000000  F
O       10.52197806      12.62637367       1.00000000  F
Mg       8.41776136      14.73144317       3.11930966  T
O       10.52124666      14.73154041       3.11895045  T
Mg      10.52247578      12.62700900       3.11867631  T
O        8.41776612      12.62692739       3.11664645  T
Mg      10.52197806      14.73076929       1.00000000  F
O        8.41758245      14.73076929       1.00000000  F
Mg       8.41800532      12.62819357       5.20356470  T
O       10.52305992      12.62723863       5.26763197  T
Mg      10.52221523      14.73119803       5.20538873  T
O        8.41768165      14.73108611       5.26880795  T
Mg      12.62637367       0.00000000       1.00000000  F
O       14.73076929       0.00000000       1.00000000  F
Mg      12.62640194       2.10454980       3.11895891  T
O       14.73096275       2.10492067       3.11843322  T
Mg      14.73095804       0.00052513       3.11872825  T
O       12.62551452       0.00085542       3.11912784  T
Mg      14.73076929       2.10439561       1.00000000  F
O       12.62637367       2.10439561       1.00000000  F
Mg      12.62618165       0.00082736       5.20522635  T
O       14.73062085       0.00097726       5.26702172  T
Mg      14.73127485       2.10487963       5.20492256  T
O       12.62666711       2.10545365       5.26800072  T
Mg      12.62637367       4.20879122       1.00000000  F
O       14.73076929       4.20879122       1.00000000  F
Mg      12.62693131       6.31318758       3.11805917  T
O       14.73093314       6.31394224       3.11824167  T
Mg      14.73123194       4.20924856       3.11946482  T
O       12.62662651       4.20892764       3.11771688  T
Mg      14.73076929       6.31318684       1.00000000  F
O       12.62637367       6.31318684       1.00000000  F
Mg      12.62686107       4.20935274       5.20435706  T
O       14.73053905       4.20974487       5.26823766  T
Mg      14.73057215       6.31454508       5.20499102  T
O       12.62758816       6.31353551       5.26665057  T
Mg      12.62637367       8.41758245       1.00000000  F
O       14.73076929       8.41758245       1.00000000  F
Mg      12.62669347      10.52283587       3.11784212  T
O       14.73107247      10.52196305       3.11800730  T
Mg      14.73117408       8.41810455       3.11909278  T
O       12.62751538       8.41778428       3.11552313  T
Mg      14.73076929      10.52197806       1.00000000  F
O       12.62637367      10.52197806       1.00000000  F
Mg      12.62635223       8.41879325       5.20091664  T
O       14.73037777       8.41838984       5.26843777  T
Mg      14.73062472      10.52254827       5.20448485  T
O       12.62800551      10.52355569       5.26547798  T
Mg      12.62637367      12.62637367       1.00000000  F
O       14.73076929      12.62637367       1.00000000  F
Mg      12.62624308      14.73150926       3.11917137  T
O       14.73124418      14.73144167       3.11845985  T
Mg      14.73142352      12.62678513       3.11907258  T
O       12.62667492      12.62701185       3.11764912  T
Mg      14.73076929      14.73076929       1.00000000  F
O       12.62637367      14.73076929       1.00000000  F
Mg      12.62645739      12.62723816       5.20374904  T
O       14.73060847      12.62684076       5.26792801  T
Mg      14.73108817      14.73165004       5.20534042  T
O       12.62653945      14.73150946       5.26761531  T
Fe       8.46063928       8.55761956      11.05609577  T
Fe       7.20655605       6.07731821      10.72376818  T
Fe       8.55549169       6.96354919       8.73502967  T
Fe      10.62136623       7.97913605       9.57238064  T
Fe      10.52914205       8.06222472      12.28307260  T
Fe       9.76070647       6.08583326      10.82051544  T
Fe       8.40276629       6.51026054      12.81049541  T
Fe       6.29353446       8.05196270      12.09928771  T
Fe       6.42855099       7.96594695       9.41300061  T
Fe       8.55207009       9.55016643       8.84301870  T
Fe       6.38172582      10.10116538      10.34835380  T
Fe       7.10282785      10.43678699      12.65516726  T
Fe       8.47500168      11.32844915      10.68094756  T
Fe       8.32970132       8.63561383      13.75982308  T
Fe       9.66401473      10.43386876      12.77267151  T
Fe      10.58994810      10.10190494      10.53787018  T
